*HEADING
HyperMesh model exported to INP format
Nodes: 40, Elements: 62
** Generated by hm_parser.py
*NODE
1, 9.31150111e-01, 1.00000000e+00, 1.00000000e+00
2, 4.66842177e-305, 4.65068250e-305, 0.00000000e+00
5, -2.84008503e+01, 0.00000000e+00, 0.00000000e+00
6, 2.66734871e-311, 6.63448814e-316, -9.63967946e-181
8, 0.00000000e+00, 5.33190459e-315, 5.34269088e-315
14, 5.22010965e-312, 6.63448819e-316, -1.79054837e-165
16, 1.19256163e-311, 1.25197752e-311, 9.94707068e-316
32, 5.38787994e-315, 0.00000000e+00, 1.42173718e-311
33, -8.35000000e+02, 3.06305885e+00, 3.31474571e-316
51, 1.48219694e-323, 3.05175781e-05, 7.81250183e-03
60, 1.48219694e-323, 3.05175781e-05, 7.81250183e-03
70, 1.60000000e+01, 1.31139340e-311, 1.01024903e-315
113, -9.16000000e+02, 3.06305885e+00, 3.17112675e-316
118, 0.00000000e+00, 3.84492854e+01, 9.25000000e+01
121, -9.16000000e+02, 8.50495913e-311, 1.00797159e-289
162, -8.51000000e+02, 2.78830247e-311, 4.09977767e-290
167, -8.51000000e+02, 8.60044894e-311, 1.11181273e-289
169, 2.12199659e-314, -1.60000000e+01, 9.25000000e+01
183, -8.51000000e+02, 3.06305885e+00, 3.19410831e-316
239, 2.12199706e-314, 4.24857910e+01, 4.34882010e+01
319, 7.65000000e+01, 3.27000000e+02, 9.88131292e-324
327, 0.00000000e+00, 7.65000000e+01, 3.19000000e+02
373, 0.00000000e+00, 0.00000000e+00, 3.89000000e+02
389, 0.00000000e+00, 6.36598737e-314, -7.19709126e-162
512, 5.41896386e-315, 0.00000000e+00, 1.02280197e-311
1700, -2.06000000e+02, -9.00000000e+02, 0.00000000e+00
1792, -1.36753268e-127, 1.36506002e-312, 3.63278068e-142
2048, 5.51286321e-315, 2.44029516e-312, 4.08800290e-289
8192, 5.51674870e-315, 4.49863108e-312, 3.67314005e-289
92160, 3.10450428e-278, -6.05650335e-135, 4.08577770e-312
131072, 5.49521725e-315, 3.09599186e-311, 4.01034138e-289
139264, 7.29112338e-304, 1.89091404e-124, 4.77830989e-299
142560, 1.06561646e-255, 1.88274989e-183, 5.64717033e-321
145792, 1.72725157e-77, 3.69774345e-313, 2.68348748e-311
262144, 5.41896386e-315, 1.43871315e-311, 1.64310521e-290
524288, 5.41896386e-315, 1.39067116e-309, 6.56200982e-303
843543, 5.41896386e-315, 1.10768180e-311, 8.49266465e-290
2093056, 1.94697580e-308, 5.00000000e+00, 1.88857625e-312
8336384, 1.36721984e-312, 4.08147965e-312, 3.74114996e-106
8388608, 5.43741867e-315, 4.24399158e-314, 3.07052791e-311
*ELEMENT, TYPE=S8
288, 71, 104, 94, 12
1, 465, 469, 429, 467
1, 298, 349, 546, 544
384, 550, 564, 575, 584
1, 591, 623, 621, 625
1, 924, 928, 832, 926
256, 1072, 341, 690, 140
3, 2130, 2132, 2134, 545
384, 2172, 2181, 514, 2030
416, 2215, 2151, 913, 769
2, 466, 2392, 925, 2167
288, 2603, 2664, 2653, 2631
3670, 3651, 3657, 3591, 3622
1, 3708, 2007, 2304, 3710
256, 2714, 3165, 2884, 3724
1, 3446, 4274, 4276, 4278
1, 2560, 1462, 1852, 4124
256, 4460, 4441, 4454, 3569
288, 3325, 3481, 4404, 4480
384, 1843, 1870, 2440, 4607
1, 4682, 2127, 4683, 1198
384, 4654, 4696, 4370, 4697
*ELEMENT, TYPE=C3D15
384, 186, 196, 126, 136
*ELEMENT, TYPE=C3D8
1, 424, 426, 428, 430
256, 686, 151, 689, 335
1, 203, 1030, 1050, 1052
384, 1153, 1162, 1135, 1110
256, 3805, 3814, 3787, 2583
*ELEMENT, TYPE=C3D6
384, 473, 255, 482, 491
256, 945, 983, 1063, 664
256, 1220, 1270, 1261, 1252
384, 1881, 1895, 1906, 1212
256, 1969, 1959, 1271, 1907
384, 2043, 2035, 2049, 2055
384, 2111, 2120, 2084, 2070
384, 2216, 741, 2226, 486
256, 3382, 3388, 3342, 3372
256, 3662, 3601, 3656, 3648
256, 3546, 3743, 3122, 3715
384, 2473, 2415, 1396, 4301
256, 4336, 2832, 3043, 4493
1, 1202, 2163, 2131, 547
*ELEMENT, TYPE=C3D10
384, 651, 660, 670, 631
1, 1055, 2016, 2014, 2006
256, 2845, 2828, 2838, 2815
256, 4142, 4169, 1735, 1806
*ELEMENT, TYPE=C3D4
1, 825, 827, 829, 831
1, 826, 877, 875, 873
1, 425, 1582, 1586, 1533
384, 1670, 1683, 1569, 1863
1, 1103, 521, 2059, 2201
1, 2357, 878, 834, 929
1, 2859, 2907, 2909, 2911
1, 3161, 2867, 2906, 3170
256, 4224, 4218, 4195, 1800
288, 1329, 1416, 1864, 378
*ELEMENT, TYPE=bar
384, 998, 1007, 190, 932
*ELEMENT, TYPE=S6
384, 1295, 1447, 1437, 114
384, 2280, 2268, 2290, 2296
3404, 3367, 3373, 3314, 4
256, 4534, 4522, 3283, 4540
256, 3261, 4645, 3470, 4660
*ELSET, ELSET=SET_QUAD8
288, 1, 1, 384, 1, 1, 256, 3, 384, 416, 2, 288, 3670, 1, 256, 1
1, 256, 288, 384, 1, 384
*ELSET, ELSET=SET_PENTA15
384
*ELSET, ELSET=SET_HEXA8
1, 256, 1, 384, 256
*ELSET, ELSET=SET_PENTA6
384, 256, 256, 384, 256, 384, 384, 384, 256, 256, 256, 384, 256, 1
*ELSET, ELSET=SET_TETRA10
384, 1, 256, 256
*ELSET, ELSET=SET_TETRA4
1, 1, 1, 384, 1, 1, 1, 1, 256, 288
*ELSET, ELSET=SET_BAR
384
*ELSET, ELSET=SET_TRIA6
384, 384, 3404, 256, 256
