*HEADING
HyperMesh model exported to INP format
Nodes: 2487, Elements: 918
** Generated by hm_parser_v2.py
*NODE
1, 1.79405065e+03, -1.21231694e+02, -8.95000000e+02
2, -1.21231694e+02, -8.95000000e+02, 1.77650000e+03
3, -8.95000000e+02, 1.77650000e+03, -1.02259049e+02
4, 1.77650000e+03, -1.02259049e+02, -8.95000000e+02
5, -1.02259049e+02, -8.95000000e+02, 1.77650000e+03
6, -8.95000000e+02, 1.77650000e+03, -7.64136120e+01
7, 1.77650000e+03, -7.64136120e+01, -8.95000000e+02
8, -7.64136120e+01, -8.95000000e+02, 1.79405065e+03
9, -8.95000000e+02, 1.79405065e+03, -1.21231694e+02
10, 1.79405065e+03, -1.21231694e+02, -9.00000000e+02
11, -1.21231694e+02, -9.00000000e+02, 1.77650000e+03
12, -9.00000000e+02, 1.77650000e+03, -1.02259049e+02
13, 1.77650000e+03, -1.02259049e+02, -9.00000000e+02
14, -1.02259049e+02, -9.00000000e+02, 1.77650000e+03
15, -9.00000000e+02, 1.77650000e+03, -7.64136120e+01
16, 1.77650000e+03, -7.64136120e+01, -9.00000000e+02
17, 1.00000000e+00, 9.31150111e-01, 1.00000000e+00
18, 9.31150111e-01, 1.00000000e+00, 1.00000000e+00
19, 1.00000000e+00, 1.00000000e+00, 9.31150111e-01
20, 1.00000000e+00, 9.31150111e-01, 1.00000000e+00
21, 2.00000000e-01, 4.00000000e-01, 6.00000000e-01
22, 4.00000000e-01, 6.00000000e-01, 8.00000000e-01
23, 6.00000000e-01, 8.00000000e-01, 1.00000000e+00
24, 8.00000000e-01, 1.00000000e+00, 1.00000000e+00
25, 3.14159265e+00, -1.37750000e+02, 3.88807654e+00
26, -1.37750000e+02, 3.88807654e+00, -1.37750000e+02
27, 1.77650000e+03, -7.64136120e+01, -7.57250000e+02
28, -7.64136120e+01, -7.57250000e+02, 1.00000000e+00
29, 1.00000000e+00, -5.20388902e+00, -1.63953889e+02
30, -5.20388902e+00, -1.63953889e+02, 2.59413612e+02
31, -1.63953889e+02, 2.59413612e+02, -2.62723062e+01
32, 5.30509403e-02, 1.06101881e-01, 1.59152821e-01
33, 1.06101881e-01, 1.59152821e-01, 2.12203761e-01
34, 1.59152821e-01, 2.12203761e-01, 2.65254701e-01
35, 2.12203761e-01, 2.65254701e-01, 2.72056104e-01
36, 1.74248579e+03, -1.46805764e+02, -7.57250000e+02
37, -1.46805764e+02, -7.57250000e+02, 1.90808995e-01
38, -7.57250000e+02, 1.90808995e-01, -9.81627183e-01
39, 1.00000000e+00, -1.14000006e+02, -1.37750000e+02
40, -1.14000006e+02, -1.37750000e+02, 6.49511091e+01
41, -1.37750000e+02, 6.49511091e+01, 3.62500064e+01
42, 5.00000000e+00, 6.66666667e-01, 5.00000000e+00
43, 6.66666667e-01, 5.00000000e+00, 1.00000000e+00
44, 1.77650000e+03, -1.34412508e+02, -8.95000000e+02
45, -1.34412508e+02, -8.95000000e+02, 1.80624357e+03
46, -8.95000000e+02, 1.80624357e+03, -7.64136120e+01
47, 1.80624357e+03, -7.64136120e+01, -8.35000000e+02
48, 1.80624287e+03, -1.34412643e+02, -9.00000000e+02
49, 1.80624287e+03, -1.34412643e+02, -9.00000000e+02
50, 6.66666667e-01, 5.00000000e+00, 6.66666667e-01
51, 1.70000000e+03, -2.06000000e+02, -9.00000000e+02
52, -6.85000000e+01, -3.27650776e+01, 2.24616670e+02
53, -3.27650776e+01, 2.24616670e+02, 3.34611667e+02
54, 3.11930842e-01, 5.60562755e-01, 8.17058007e-01
55, 5.60562755e-01, 8.17058007e-01, 1.05762604e+00
56, 8.17058007e-01, 1.05762604e+00, 1.30584326e+00
57, 1.05762604e+00, 1.30584326e+00, 1.56197685e+00
58, 1.30584326e+00, 1.56197685e+00, 1.80225599e+00
59, 1.56197685e+00, 1.80225599e+00, 2.05021962e+00
60, 1.80225599e+00, 2.05021962e+00, 2.30612902e+00
61, 2.05021962e+00, 2.30612902e+00, 2.54622286e+00
62, 2.30612902e+00, 2.54622286e+00, 2.79401383e+00
63, 2.54622286e+00, 2.79401383e+00, 3.04975677e+00
64, 2.79401383e+00, 3.04975677e+00, 3.31371328e+00
65, 3.04975677e+00, 3.31371328e+00, 3.58615171e+00
66, 3.31371328e+00, 3.58615171e+00, 3.84176396e+00
67, 3.58615171e+00, 3.84176396e+00, 4.10557311e+00
68, 3.84176396e+00, 4.10557311e+00, 4.37784184e+00
69, 4.10557311e+00, 4.37784184e+00, 4.65883997e+00
70, 4.37784184e+00, 4.65883997e+00, 4.94884457e+00
71, 4.65883997e+00, 4.94884457e+00, 5.00117182e+00
72, 1.77520716e+03, -7.77064482e+01, -9.00275265e+02
73, -7.77064482e+01, -9.00275265e+02, 1.77779284e+03
74, -9.00275265e+02, 1.77779284e+03, -7.51207758e+01
75, 1.77779284e+03, -7.51207758e+01, -8.33707164e+02
76, -7.51207758e+01, -8.33707164e+02, 2.06306839e+00
77, 1.72140726e+03, -1.64146333e+02, -9.06000000e+02
78, -1.64146333e+02, -9.06000000e+02, -9.81627183e-01
79, -9.06000000e+02, -9.81627183e-01, -1.90808995e-01
80, 1.72140392e+03, -1.64149667e+02, -9.06003333e+02
81, -1.64149667e+02, -9.06003333e+02, 1.72141059e+03
82, -9.06003333e+02, 1.72141059e+03, -1.64143000e+02
83, 1.72141059e+03, -1.64143000e+02, -8.99996667e+02
84, 1.72140726e+03, -1.64146333e+02, -9.06000000e+02
85, 1.72140726e+03, -1.64146333e+02, -9.06000000e+02
86, -1.64146333e+02, -9.06000000e+02, 3.06305885e+00
87, 5.50514730e-01, 1.10102946e+00, 1.65154419e+00
88, 1.10102946e+00, 1.65154419e+00, 2.20205892e+00
89, 1.65154419e+00, 2.20205892e+00, 2.75257365e+00
90, 2.20205892e+00, 2.75257365e+00, 3.30308838e+00
91, 2.75257365e+00, 3.30308838e+00, 3.85360311e+00
92, 3.30308838e+00, 3.85360311e+00, 4.40411784e+00
93, 3.85360311e+00, 4.40411784e+00, 4.95463257e+00
94, 4.40411784e+00, 4.95463257e+00, 5.50514730e+00
95, 4.95463257e+00, 5.50514730e+00, 6.00000000e+00
96, 1.70000000e+03, -2.06000000e+02, -9.06000000e+02
97, 1.34098395e+01, -3.79933427e+01, 2.10401158e+02
98, -3.79933427e+01, 2.10401158e+02, 8.14977936e+01
99, 2.22400500e+00, 3.70110601e+00, 7.00674822e+00
100, 3.70110601e+00, 7.00674822e+00, 1.17894914e+01
101, 7.00674822e+00, 1.17894914e+01, 1.65722347e+01
102, 1.17894914e+01, 1.65722347e+01, 2.13549779e+01
103, 1.65722347e+01, 2.13549779e+01, 2.61377211e+01
104, 2.13549779e+01, 2.61377211e+01, 3.09204643e+01
105, 2.61377211e+01, 3.09204643e+01, 3.57032076e+01
106, 3.09204643e+01, 3.57032076e+01, 4.04859508e+01
107, 3.57032076e+01, 4.04859508e+01, 4.52686940e+01
108, 4.04859508e+01, 4.52686940e+01, 5.00514372e+01
109, 4.52686940e+01, 5.00514372e+01, 5.48341804e+01
110, 5.00514372e+01, 5.48341804e+01, 5.96169237e+01
111, 5.48341804e+01, 5.96169237e+01, 6.43996669e+01
112, 5.96169237e+01, 6.43996669e+01, 6.91824101e+01
113, 6.43996669e+01, 6.91824101e+01, 7.32913353e+01
114, 7.10000000e+01, 1.20000000e+01, 7.40000000e+01
115, 1.20000000e+01, 7.40000000e+01, 1.20000000e+01
116, 1.72100612e+03, -2.37187878e+02, -9.06401133e+02
117, -2.37187878e+02, -9.06401133e+02, 1.73592825e+03
118, -9.06401133e+02, 1.73592825e+03, -1.63745201e+02
119, 1.73592825e+03, -1.63745201e+02, -9.05598867e+02
120, 1.71953207e+03, -2.35717045e+02, -9.01875182e+02
121, -2.35717045e+02, -9.01875182e+02, 1.73682988e+03
122, -9.01875182e+02, 1.73682988e+03, -1.62271152e+02
123, 1.73682988e+03, -1.62271152e+02, -8.98124818e+02
124, -1.62271152e+02, -8.98124818e+02, 2.06306839e+00
125, 1.88793688e+03, -1.32055800e+02, -9.00346996e+02
126, -1.32055800e+02, -9.00346996e+02, 1.88863087e+03
127, -9.00346996e+02, 1.88863087e+03, -1.31361809e+02
128, 1.88863087e+03, -1.31361809e+02, -8.85653004e+02
129, 1.88885630e+03, -1.34653686e+02, -9.00000000e+02
130, 7.10000000e+01, 6.00000000e+00, 7.10000000e+01
131, 6.00000000e+00, 7.10000000e+01, 2.00000000e+01
132, 1.88283877e+02, 1.65078429e+00, 2.02403742e+02
133, 1.65078429e+00, 2.02403742e+02, 7.42911959e+01
134, 2.74646803e-01, 9.90315953e-01, 1.70598510e+00
135, 9.90315953e-01, 1.70598510e+00, 2.42165425e+00
136, 1.70598510e+00, 2.42165425e+00, 3.13732340e+00
137, 2.42165425e+00, 3.13732340e+00, 3.85299255e+00
138, 3.13732340e+00, 3.85299255e+00, 4.56866170e+00
139, 3.85299255e+00, 4.56866170e+00, 5.28433085e+00
140, 4.56866170e+00, 5.28433085e+00, 6.00000000e+00
141, 1.74496631e+03, -1.59566917e+02, -8.86000000e+02
142, 1.74496631e+03, -1.59566917e+02, -8.86000000e+02
143, 1.46000000e+02, 6.00000000e+00, 1.46000000e+02
144, 6.00000000e+00, 1.46000000e+02, 2.00000000e+01
145, 1.74496008e+03, -1.59573144e+02, -9.06006227e+02
146, -1.59573144e+02, -9.06006227e+02, 1.88829010e+03
147, -9.06006227e+02, 1.88829010e+03, -1.31702578e+02
148, 1.88829010e+03, -1.31702578e+02, -9.05993773e+02
149, 3.00598510e+00, 1.07830979e+01, 1.85602106e+01
150, 1.07830979e+01, 1.85602106e+01, 2.63373234e+01
151, 1.85602106e+01, 2.63373234e+01, 3.41144362e+01
152, 2.63373234e+01, 3.41144362e+01, 4.18915489e+01
153, 3.41144362e+01, 4.18915489e+01, 4.96686617e+01
154, 4.18915489e+01, 4.96686617e+01, 5.74457745e+01
155, 4.96686617e+01, 5.74457745e+01, 6.52228872e+01
156, 5.74457745e+01, 6.52228872e+01, 7.30000000e+01
157, 6.52228872e+01, 7.30000000e+01, 8.07771128e+01
158, 7.30000000e+01, 8.07771128e+01, 8.85542255e+01
159, 8.07771128e+01, 8.85542255e+01, 9.63313383e+01
160, 8.85542255e+01, 9.63313383e+01, 1.04108451e+02
161, 9.63313383e+01, 1.04108451e+02, 1.11885564e+02
162, 1.04108451e+02, 1.11885564e+02, 1.19662677e+02
163, 1.11885564e+02, 1.19662677e+02, 1.27439789e+02
164, 1.19662677e+02, 1.27439789e+02, 1.35216902e+02
165, 1.27439789e+02, 1.35216902e+02, 1.42994015e+02
166, 1.35216902e+02, 1.42994015e+02, 1.46000000e+02
167, 5.00000000e-02, 1.00000000e-01, 1.50000000e-01
168, 1.00000000e-01, 1.50000000e-01, 2.00000000e-01
169, 1.50000000e-01, 2.00000000e-01, 2.50000000e-01
170, 2.00000000e-01, 2.50000000e-01, 3.00000000e-01
171, 2.50000000e-01, 3.00000000e-01, 3.50000000e-01
172, 3.00000000e-01, 3.50000000e-01, 4.00000000e-01
173, 3.50000000e-01, 4.00000000e-01, 4.50000000e-01
174, 4.00000000e-01, 4.50000000e-01, 5.00000000e-01
175, 4.50000000e-01, 5.00000000e-01, 5.44944546e-01
176, -1.29586388e+02, -8.10000000e+01, -1.27548955e+02
177, 1.77650000e+03, 3.30000000e+01, -8.35000000e+02
178, 3.30000000e+01, -8.35000000e+02, 1.79250000e+03
179, -8.35000000e+02, 1.79250000e+03, 3.30000000e+01
180, 1.79250000e+03, 3.30000000e+01, -8.35000000e+02
181, 3.30000000e+01, -8.35000000e+02, 1.77650000e+03
182, -8.35000000e+02, 1.77650000e+03, 7.66251642e+01
183, 1.77650000e+03, 7.66251642e+01, -8.17840769e+02
184, 7.66251642e+01, -8.17840769e+02, 1.79250000e+03
185, -8.17840769e+02, 1.79250000e+03, 7.66251642e+01
186, 1.79250000e+03, 7.66251642e+01, -8.17840769e+02
187, 7.66251642e+01, -8.17840769e+02, 1.77650000e+03
188, -8.17840769e+02, 1.77650000e+03, 1.20250328e+02
189, 1.77650000e+03, 1.20250328e+02, -8.00681537e+02
190, 1.20250328e+02, -8.00681537e+02, 1.79250000e+03
191, -8.00681537e+02, 1.79250000e+03, 1.20250328e+02
192, 1.79250000e+03, 1.20250328e+02, -8.00681537e+02
193, 1.20250328e+02, -8.00681537e+02, 1.77650000e+03
194, -8.00681537e+02, 1.77650000e+03, 1.63875493e+02
195, 1.77650000e+03, 1.63875493e+02, -7.83522306e+02
196, 1.63875493e+02, -7.83522306e+02, 1.79250000e+03
197, -7.83522306e+02, 1.79250000e+03, 1.63875493e+02
198, 1.79250000e+03, 1.63875493e+02, -7.83522306e+02
199, 1.79249695e+03, -7.84540984e+01, -8.35003053e+02
200, -7.84540984e+01, -8.35003053e+02, 1.79250305e+03
201, -8.35003053e+02, 1.79250305e+03, -4.44378931e+01
202, 1.79250305e+03, -4.44378931e+01, -8.34996947e+02
203, 1.79250000e+03, -4.44409461e+01, -8.35000000e+02
204, 1.79250000e+03, -4.44409461e+01, -8.35000000e+02
205, 1.79249695e+03, -1.02266240e+01, -8.35003053e+02
206, -1.02266240e+01, -8.35003053e+02, 1.79250305e+03
207, -8.35003053e+02, 1.79250305e+03, 3.30030530e+01
208, 1.79250305e+03, 3.30030530e+01, -8.34996947e+02
209, 1.79996388e+03, -1.36651872e+02, -8.75500000e+02
210, -1.36651872e+02, -8.75500000e+02, -1.90750857e-01
211, -8.75500000e+02, -1.90750857e-01, 9.81328089e-01
212, -1.90750857e-01, 9.81328089e-01, 2.46838348e-02
213, 9.81328089e-01, 2.46838348e-02, -4.70989771e-03
214, 2.46838348e-02, -4.70989771e-03, 2.42303232e-02
215, -4.70989771e-03, 2.42303232e-02, -9.99695308e-01
216, 2.42303232e-02, -9.99695308e-01, -9.81627183e-01
217, -9.99695308e-01, -9.81627183e-01, -1.90808995e-01
218, -4.05123438e+01, -1.41640492e+02, 4.05123438e+01
219, -1.41640492e+02, 4.05123438e+01, -5.28539303e+01
220, 2.05608931e+02, -1.42750000e+02, 2.09000000e+02
221, -1.42750000e+02, 2.09000000e+02, -1.42750000e+02
222, 1.88885008e+03, -1.34659912e+02, -9.00006227e+02
223, -1.34659912e+02, -9.00006227e+02, 1.89867880e+03
224, -9.00006227e+02, 1.89867880e+03, -1.32739369e+02
225, 1.89867880e+03, -1.32739369e+02, -8.99993773e+02
226, 1.89965486e+03, -1.32554658e+02, -9.02833898e+02
227, -1.32554658e+02, -9.02833898e+02, 1.90808995e-01
228, -9.02833898e+02, 1.90808995e-01, -9.81627183e-01
229, 5.80109933e+00, 1.12761948e+00, 4.33023284e+00
230, 1.12761948e+00, 4.33023284e+00, -2.46747949e+00
231, 4.33023284e+00, -2.46747949e+00, -4.79629427e-01
232, -2.46747949e+00, -4.79629427e-01, 3.43051602e+00
233, -4.79629427e-01, 3.43051602e+00, -7.31944045e-01
234, 3.43051602e+00, -7.31944045e-01, -2.91402635e+00
235, -7.31944045e-01, -2.91402635e+00, 5.07889307e+00
236, -2.91402635e+00, 5.07889307e+00, 1.07473813e+01
237, 1.90136291e+03, -2.01872735e+02, -9.00468401e+02
238, -2.01872735e+02, -9.00468401e+02, 1.91604250e+03
239, -9.00468401e+02, 1.91604250e+03, -1.98264607e+02
240, 1.91604250e+03, -1.98264607e+02, -8.99531599e+02
241, -1.98264607e+02, -8.99531599e+02, 2.06306839e+00
242, 1.88845130e+03, -1.35058694e+02, -9.00405008e+02
243, -1.35058694e+02, -9.00405008e+02, 1.90285892e+03
244, -9.00405008e+02, 1.90285892e+03, -1.31722527e+02
245, 1.90285892e+03, -1.31722527e+02, -8.99594992e+02
246, -1.31722527e+02, -8.99594992e+02, 2.06306839e+00
247, 1.74467879e+03, -1.62799320e+02, -8.86287521e+02
248, -1.62799320e+02, -8.86287521e+02, 1.74582626e+03
249, -8.86287521e+02, 1.74582626e+03, -1.59279397e+02
250, 1.74582626e+03, -1.59279397e+02, -8.85712479e+02
251, 1.43471112e-01, 1.91056863e-01, 2.38642614e-01
252, 1.91056863e-01, 2.38642614e-01, 2.86228365e-01
253, 2.38642614e-01, 2.86228365e-01, 4.28984024e-01
254, 2.86228365e-01, 4.28984024e-01, 4.76568724e-01
255, 4.28984024e-01, 4.76568724e-01, 5.24153423e-01
256, 4.76568724e-01, 5.24153423e-01, 5.71738122e-01
257, 5.24153423e-01, 5.71738122e-01, 7.14492158e-01
258, 5.71738122e-01, 7.14492158e-01, 7.62076902e-01
259, 7.14492158e-01, 7.62076902e-01, 8.09661647e-01
260, 7.62076902e-01, 8.09661647e-01, 8.57246392e-01
261, 8.09661647e-01, 8.57246392e-01, 1.00000000e+00
262, 1.75217165e+03, -2.86737534e+00, -9.16328352e+02
263, -2.86737534e+00, -9.16328352e+02, 1.75282835e+03
264, -9.16328352e+02, 1.75282835e+03, -2.21067228e+00
265, 1.75282835e+03, -2.21067228e+00, -8.99671648e+02
266, 1.64748460e+03, -2.55442460e+00, -9.16015401e+02
267, -2.55442460e+00, -9.16015401e+02, 1.70001545e+03
268, -9.16015401e+02, 1.70001545e+03, 4.99762760e+01
269, 1.70001545e+03, 4.99762760e+01, -9.15984599e+02
270, -4.15180800e+06, -4.15193575e+06, -4.15193575e+06
271, 1.64750000e+03, -2.53902381e+00, -9.00000000e+02
272, -2.53902381e+00, -9.00000000e+02, 3.06305885e+00
273, 6.25000000e-02, 1.25000000e-01, 1.87500000e-01
274, 1.25000000e-01, 1.87500000e-01, 2.50000000e-01
275, 1.87500000e-01, 2.50000000e-01, 3.12500000e-01
276, 2.50000000e-01, 3.12500000e-01, 3.75000000e-01
277, 3.12500000e-01, 3.75000000e-01, 4.37500000e-01
278, 3.75000000e-01, 4.37500000e-01, 4.99952251e-01
279, 4.37500000e-01, 4.99952251e-01, 4.99952251e-01
280, 1.60000000e+01, 1.57079734e+00, 1.60000000e+01
281, 1.64750000e+03, -2.53902381e+00, -9.16000000e+02
282, -2.53902381e+00, -9.16000000e+02, 1.75250000e+03
283, -9.16000000e+02, 1.75250000e+03, 4.99609762e+01
284, 1.75250000e+03, 4.99609762e+01, -9.00000000e+02
285, 1.73552712e+03, -2.36786745e+02, -8.91000000e+02
286, 2.48970539e-01, 1.50000000e+00, 2.75102946e+00
287, 1.50000000e+00, 2.75102946e+00, 2.99966667e+00
288, 2.75102946e+00, 2.99966667e+00, 3.00000000e+00
289, 3.33333338e-04, 1.39794108e+00, 2.94897054e+00
290, 1.39794108e+00, 2.94897054e+00, 4.50000000e+00
291, 2.94897054e+00, 4.50000000e+00, 6.05102946e+00
292, 4.50000000e+00, 6.05102946e+00, 7.60205892e+00
293, 6.05102946e+00, 7.60205892e+00, 9.00000000e+00
294, 5.50514730e-01, 1.10102946e+00, 1.65154419e+00
295, 1.10102946e+00, 1.65154419e+00, 2.20205892e+00
296, 1.65154419e+00, 2.20205892e+00, 2.75257365e+00
297, 2.20205892e+00, 2.75257365e+00, 3.30308838e+00
298, 2.75257365e+00, 3.30308838e+00, 3.85360311e+00
299, 3.30308838e+00, 3.85360311e+00, 4.40411784e+00
300, 3.85360311e+00, 4.40411784e+00, 4.95463257e+00
301, 4.40411784e+00, 4.95463257e+00, 5.00000000e+00
302, 1.90548495e+03, -2.08133368e+02, -8.86000000e+02
303, -2.08133368e+02, -8.86000000e+02, 1.90309549e+03
304, -8.86000000e+02, 1.90309549e+03, -2.08597833e+02
305, 1.90309549e+03, -2.08597833e+02, -8.86000000e+02
306, -2.08597833e+02, -8.86000000e+02, 1.90070603e+03
307, -8.86000000e+02, 1.90070603e+03, -2.09062297e+02
308, 1.90070603e+03, -2.09062297e+02, -8.86000000e+02
309, -2.09062297e+02, -8.86000000e+02, 1.89831657e+03
310, -8.86000000e+02, 1.89831657e+03, -2.09526761e+02
311, 1.89831657e+03, -2.09526761e+02, -8.86000000e+02
312, -2.09526761e+02, -8.86000000e+02, 1.84596312e+03
313, -8.86000000e+02, 1.84596312e+03, -2.19703240e+02
314, 1.84596312e+03, -2.19703240e+02, -8.86000000e+02
315, -2.19703240e+02, -8.86000000e+02, 1.79360967e+03
316, -8.86000000e+02, 1.79360967e+03, -2.29879720e+02
317, 1.79360967e+03, -2.29879720e+02, -8.86000000e+02
318, -2.29879720e+02, -8.86000000e+02, 1.74125622e+03
319, -8.86000000e+02, 1.74125622e+03, -2.40056200e+02
320, 1.74125622e+03, -2.40056200e+02, -8.86000000e+02
321, -2.40056200e+02, -8.86000000e+02, 1.73886676e+03
322, -8.86000000e+02, 1.73886676e+03, -2.40520664e+02
323, 1.73886676e+03, -2.40520664e+02, -8.86000000e+02
324, -2.40520664e+02, -8.86000000e+02, 1.73647730e+03
325, -8.86000000e+02, 1.73647730e+03, -2.40985128e+02
326, 1.73647730e+03, -2.40985128e+02, -8.86000000e+02
327, -2.40985128e+02, -8.86000000e+02, 1.73408784e+03
328, -8.86000000e+02, 1.73408784e+03, -2.41449592e+02
329, 1.73408784e+03, -2.41449592e+02, -8.86000000e+02
330, -2.41449592e+02, -8.86000000e+02, 1.90409156e+03
331, -8.86000000e+02, 1.90409156e+03, -2.00964987e+02
332, 1.90409156e+03, -2.00964987e+02, -8.86000000e+02
333, -2.00964987e+02, -8.86000000e+02, 1.90170210e+03
334, -8.86000000e+02, 1.90170210e+03, -2.01429451e+02
335, 1.90170210e+03, -2.01429451e+02, -8.86000000e+02
336, -2.01429451e+02, -8.86000000e+02, 1.89931264e+03
337, -8.86000000e+02, 1.89931264e+03, -2.01893915e+02
338, 1.89931264e+03, -2.01893915e+02, -8.86000000e+02
339, -2.01893915e+02, -8.86000000e+02, 1.89692318e+03
340, -8.86000000e+02, 1.89692318e+03, -2.02358379e+02
341, 1.89692318e+03, -2.02358379e+02, -8.86000000e+02
342, -2.02358379e+02, -8.86000000e+02, 1.84456973e+03
343, -8.86000000e+02, 1.84456973e+03, -2.12534859e+02
344, 1.84456973e+03, -2.12534859e+02, -8.86000000e+02
345, -2.12534859e+02, -8.86000000e+02, 1.79221628e+03
346, -8.86000000e+02, 1.79221628e+03, -2.22711339e+02
347, 1.79221628e+03, -2.22711339e+02, -8.86000000e+02
348, -2.22711339e+02, -8.86000000e+02, 1.73986283e+03
349, -8.86000000e+02, 1.73986283e+03, -2.32887818e+02
350, 1.73986283e+03, -2.32887818e+02, -8.86000000e+02
351, -2.32887818e+02, -8.86000000e+02, 1.73747337e+03
352, -8.86000000e+02, 1.73747337e+03, -2.33352282e+02
353, 1.73747337e+03, -2.33352282e+02, -8.86000000e+02
354, -2.33352282e+02, -8.86000000e+02, 1.73508391e+03
355, -8.86000000e+02, 1.73508391e+03, -2.33816747e+02
356, 1.73508391e+03, -2.33816747e+02, -8.86000000e+02
357, -2.33816747e+02, -8.86000000e+02, 1.73269445e+03
358, -8.86000000e+02, 1.73269445e+03, -2.34281211e+02
359, 1.73269445e+03, -2.34281211e+02, -8.86000000e+02
360, 1.90236329e+03, -2.04389669e+02, -9.00040453e+02
361, -2.04389669e+02, -9.00040453e+02, 1.90244420e+03
362, -9.00040453e+02, 1.90244420e+03, -2.04308763e+02
363, 1.90244420e+03, -2.04308763e+02, -8.85959547e+02
364, 1.60000000e+01, 7.00000000e+01, 1.60000000e+01
365, 5.25000000e+01, 1.33460976e+02, 5.25000000e+01
366, 1.33460976e+02, 5.25000000e+01, 2.03460976e+02
367, 1.89923478e+03, -1.32387945e+02, -8.96405585e+02
368, -1.32387945e+02, -8.96405585e+02, 1.90300467e+03
369, -8.96405585e+02, 1.90300467e+03, -1.16355494e+02
370, 1.90300467e+03, -1.16355494e+02, -8.95594415e+02
371, 1.89830726e+03, -1.19363726e+02, -8.97333103e+02
372, -1.19363726e+02, -8.97333103e+02, 1.90122024e+03
373, -8.97333103e+02, 1.90122024e+03, -1.15427976e+02
374, 1.90122024e+03, -1.15427976e+02, -8.42288006e+02
375, 1.89988714e+03, -1.18030623e+02, -8.43621109e+02
376, -1.18030623e+02, -8.43621109e+02, 3.06305885e+00
377, 1.89990855e+03, -1.18140736e+02, -8.43623879e+02
378, 1.90259908e+03, -1.31982360e+02, -9.16000000e+02
379, 1.90259908e+03, -1.31982360e+02, -9.16000000e+02
380, -1.31982360e+02, -9.16000000e+02, 3.06305885e+00
381, 1.90117578e+03, -1.33405667e+02, -9.01023307e+02
382, -1.33405667e+02, -9.01023307e+02, 1.90402239e+03
383, -9.01023307e+02, 1.90402239e+03, -1.30559052e+02
384, 1.90402239e+03, -1.30559052e+02, -8.94576693e+02
385, 1.89838271e+03, -1.33635154e+02, -9.16019458e+02
386, -1.33635154e+02, -9.16019458e+02, 1.90425188e+03
387, -9.16019458e+02, 1.90425188e+03, -1.15503424e+02
388, 1.90425188e+03, -1.15503424e+02, -8.42319250e+02
389, 1.91859731e+03, -2.14286072e+02, -9.09688724e+02
390, -2.14286072e+02, -9.09688724e+02, 2.06305885e+00
391, 6.84436220e-01, 4.19220830e-01, 1.00000000e+00
392, 4.19220830e-01, 1.00000000e+00, 4.20000000e-01
393, 1.88578771e+03, -1.18963099e+02, -9.16015401e+02
394, -1.18963099e+02, -9.16015401e+02, 1.89956154e+03
395, -9.16015401e+02, 1.89956154e+03, -1.16260924e+02
396, 1.89956154e+03, -1.16260924e+02, -9.15984599e+02
397, 1.88481347e+03, -1.20082766e+02, -9.16989647e+02
398, -1.20082766e+02, -9.16989647e+02, 1.90003920e+03
399, -9.16989647e+02, 1.90003920e+03, -1.15877495e+02
400, 1.90003920e+03, -1.15877495e+02, -8.95601170e+02
401, 1.88485680e+03, -1.21885493e+02, -9.10974833e+02
402, -1.21885493e+02, -9.10974833e+02, 1.88715953e+03
403, -9.10974833e+02, 1.88715953e+03, -1.18118537e+02
404, 1.88715953e+03, -1.18118537e+02, -8.34025474e+02
405, 1.88569129e+03, -1.21050794e+02, -9.16212721e+02
406, -1.21050794e+02, -9.16212721e+02, 1.90002702e+03
407, -9.16212721e+02, 1.90002702e+03, -1.16063604e+02
408, 1.90002702e+03, -1.16063604e+02, -8.34860173e+02
409, 1.73985660e+03, -2.32894045e+02, -8.86006227e+02
410, -2.32894045e+02, -8.86006227e+02, 1.89692941e+03
411, -8.86006227e+02, 1.89692941e+03, -2.02352153e+02
412, 1.89692941e+03, -2.02352153e+02, -8.85993773e+02
413, 1.89362704e+03, -2.02999084e+02, -8.35000000e+02
414, 1.89362676e+03, -2.02997661e+02, -8.35000000e+02
415, -2.02997661e+02, -8.35000000e+02, 2.06305885e+00
416, 1.89362704e+03, -2.02999084e+02, -8.35000000e+02
417, 1.70000000e+03, -2.06000000e+02, -8.35000000e+02
418, -1.93627040e+02, -4.68912342e+01, 2.04502640e+02
419, -4.68912342e+01, 2.04502640e+02, 4.59558944e+00
420, 1.73494847e+03, -2.33848090e+02, -8.91006227e+02
421, -2.33848090e+02, -8.91006227e+02, 1.73496092e+03
422, -8.91006227e+02, 1.73496092e+03, -2.33835637e+02
423, 1.73496092e+03, -2.33835637e+02, -8.85993773e+02
424, 3.56089305e+01, -1.33750000e+02, 3.56089305e+01
425, -1.33750000e+02, 3.56089305e+01, -1.28750000e+02
426, 1.60000000e+02, 1.00000000e+00, 1.65000000e+02
427, 1.00000000e+00, 1.65000000e+02, 1.00000000e+00
428, 2.00608931e+02, -1.28750000e+02, 2.05608931e+02
429, -1.28750000e+02, 2.05608931e+02, -1.28750000e+02
430, 1.71887013e+03, -2.37141171e+02, -9.00214475e+02
431, -2.37141171e+02, -9.00214475e+02, 1.73516917e+03
432, -9.00214475e+02, 1.73516917e+03, -2.33627389e+02
433, 1.73516917e+03, -2.33627389e+02, -8.99785525e+02
434, 1.94418052e+01, -1.42750000e+02, 3.56089305e+01
435, -1.42750000e+02, 3.56089305e+01, -1.42750000e+02
436, 1.92223509e+03, -1.97443000e+02, -8.42472878e+02
437, -1.97443000e+02, -8.42472878e+02, 1.90629630e-01
438, -8.42472878e+02, 1.90629630e-01, -9.81662026e-01
439, 1.90629630e-01, -9.81662026e-01, 1.06351960e-04
440, -9.81662026e-01, 1.06351960e-04, -2.76990987e+01
441, 1.06351960e-04, -2.76990987e+01, -5.37711361e+00
442, -2.76990987e+01, -5.37711361e+00, 1.65552935e+01
443, -5.37711361e+00, 1.65552935e+01, -6.92198461e+00
444, 1.65552935e+01, -6.92198461e+00, -1.34548705e+00
445, -6.92198461e+00, -1.34548705e+00, -1.20183657e+01
446, 1.65000000e+02, 5.89184596e-01, 1.65000000e+02
447, 5.89184596e-01, 1.65000000e+02, 1.00000000e+00
448, -5.00000000e+00, 7.27527727e-01, 3.00000000e+00
449, 7.27527727e-01, 3.00000000e+00, 1.00000000e+00
450, -5.00000000e+00, 7.27527727e-01, 3.00000000e+00
451, 7.27527727e-01, 3.00000000e+00, 1.00000000e+00
452, 1.90170039e+03, -2.01535263e+02, -9.00130929e+02
453, -2.01535263e+02, -9.00130929e+02, 1.90196224e+03
454, -9.00130929e+02, 1.90196224e+03, -2.01273405e+02
455, 1.90196224e+03, -2.01273405e+02, -8.90869071e+02
456, 1.00000000e+00, 9.00000000e+00, 1.00000000e+00
457, 4.53674257e-02, 5.95882156e-01, 1.14639689e+00
458, 5.95882156e-01, 1.14639689e+00, 1.69691162e+00
459, 1.14639689e+00, 1.69691162e+00, 2.24742635e+00
460, 1.69691162e+00, 2.24742635e+00, 2.79794108e+00
461, 2.24742635e+00, 2.79794108e+00, 3.34845581e+00
462, 2.79794108e+00, 3.34845581e+00, 3.89897054e+00
463, 3.34845581e+00, 3.89897054e+00, 4.44948527e+00
464, 3.89897054e+00, 4.44948527e+00, 5.00000000e+00
465, 1.40000000e+01, 7.27527727e-01, 1.40000000e+01
466, 7.27527727e-01, 1.40000000e+01, 1.00000000e+00
467, 1.74185801e+03, -1.47433542e+02, -8.95627778e+02
468, -1.47433542e+02, -8.95627778e+02, 1.78924571e+03
469, -8.95627778e+02, 1.78924571e+03, -1.37210806e+02
470, 1.78924571e+03, -1.37210806e+02, -8.94372222e+02
471, -1.37750000e+02, 4.69955798e+01, -1.37750000e+02
472, 7.35558438e-03, 6.46077042e-02, 1.21859824e-01
473, 6.46077042e-02, 1.21859824e-01, 1.79111944e-01
474, 1.21859824e-01, 1.79111944e-01, 2.36364064e-01
475, 1.79111944e-01, 2.36364064e-01, 2.93616183e-01
476, 1.79555293e+01, 1.79555293e+01, 1.88916935e+01
477, 1.79555293e+01, 1.88916935e+01, 1.88916935e+01
478, 3.00000000e+00, -7.77500000e+01, 6.49511091e+01
479, -7.77500000e+01, 6.49511091e+01, -7.77500000e+01
480, 1.76557083e+03, -1.42320946e+02, -8.59003053e+02
481, -1.42320946e+02, -8.59003053e+02, 1.77539321e+03
482, -8.59003053e+02, 1.77539321e+03, -1.40406750e+02
483, 1.77539321e+03, -1.40406750e+02, -8.48996947e+02
484, 4.65689370e-10, 2.00012063e+00, 8.59045274e+09
485, 1.74248579e+03, -1.46805764e+02, -8.35000000e+02
486, 1.74248579e+03, -1.46805764e+02, -8.35000000e+02
487, 2.35202293e+01, -1.01750000e+02, 3.35202293e+01
488, -1.01750000e+02, 3.35202293e+01, -9.17500000e+01
489, 5.00039300e-01, 5.00039300e-01, 1.00000000e+00
490, 5.00039300e-01, 1.00000000e+00, 1.00000000e+00
491, 1.15762692e-01, 8.81188622e-01, 8.84248249e-01
492, 8.81188622e-01, 8.84248249e-01, 8.81192074e-01
493, 1.69963699e+03, -2.39127711e+02, -8.35363012e+02
494, -2.39127711e+02, -8.35363012e+02, 1.71944391e+03
495, -8.35363012e+02, 1.71944391e+03, -2.36564404e+02
496, 1.71944391e+03, -2.36564404e+02, -8.34636988e+02
497, 1.70000000e+03, -2.38764698e+02, -8.35000000e+02
498, -2.38764698e+02, -8.35000000e+02, 2.06305885e+00
499, 1.70000000e+03, -2.38764698e+02, -8.35000000e+02
500, 1.69972473e+03, -2.39039966e+02, -9.00275829e+02
501, -2.39039966e+02, -9.00275829e+02, 1.70027527e+03
502, -9.00275829e+02, 1.70027527e+03, -2.38489431e+02
503, 1.70027527e+03, -2.38489431e+02, -8.93724733e+02
504, 4.16130365e-01, 6.90479609e-01, 9.22020210e-01
505, 6.90479609e-01, 9.22020210e-01, 1.18260224e+00
506, 9.22020210e-01, 1.18260224e+00, 1.45145138e+00
507, 1.18260224e+00, 1.45145138e+00, 1.72884917e+00
508, 1.45145138e+00, 1.72884917e+00, 1.99716270e+00
509, 1.72884917e+00, 1.99716270e+00, 2.27403564e+00
510, 1.99716270e+00, 2.27403564e+00, 2.53376687e+00
511, 2.27403564e+00, 2.53376687e+00, 2.80179544e+00
512, 2.53376687e+00, 2.80179544e+00, 3.07839782e+00
513, 2.80179544e+00, 3.07839782e+00, 3.36385872e+00
514, 3.07839782e+00, 3.36385872e+00, 3.63166831e+00
515, 3.36385872e+00, 3.63166831e+00, 3.90804908e+00
516, 3.63166831e+00, 3.90804908e+00, 4.19328053e+00
517, 3.90804908e+00, 4.19328053e+00, 4.48764968e+00
518, 4.19328053e+00, 4.48764968e+00, 4.79145117e+00
519, 4.48764968e+00, 4.79145117e+00, 5.07646504e+00
520, 4.79145117e+00, 5.07646504e+00, 5.37059228e+00
521, 5.07646504e+00, 5.37059228e+00, 5.67412333e+00
522, 5.37059228e+00, 5.67412333e+00, 5.98735671e+00
523, 5.67412333e+00, 5.98735671e+00, 6.00056132e+00
524, -2.72387107e-06, -3.27634278e+01, 1.90808995e+01
525, -3.27634278e+01, 1.90808995e+01, -3.09274165e+01
526, 2.25814602e+02, 1.91986218e-01, 2.90815163e+02
527, 2.25814602e+02, 1.91986218e-01, 2.90815163e+02
528, 1.68043967e+03, -2.37406843e+02, -9.00479764e+02
529, -2.37406843e+02, -9.00479764e+02, 1.68139853e+03
530, -9.00479764e+02, 1.68139853e+03, -2.36447990e+02
531, 1.68139853e+03, -2.36447990e+02, -8.93520573e+02
532, 1.68091910e+03, -2.36927416e+02, -8.94000000e+02
533, 4.16023298e-01, 6.90301593e-01, 9.21782206e-01
534, 6.90301593e-01, 9.21782206e-01, 1.18229674e+00
535, 9.21782206e-01, 1.18229674e+00, 1.45107637e+00
536, 1.18229674e+00, 1.45107637e+00, 1.72840255e+00
537, 1.45107637e+00, 1.72840255e+00, 1.99664687e+00
538, 1.72840255e+00, 1.99664687e+00, 2.27344842e+00
539, 1.99664687e+00, 2.27344842e+00, 2.53311275e+00
540, 2.27344842e+00, 2.53311275e+00, 2.80107236e+00
541, 2.53311275e+00, 2.80107236e+00, 3.07760364e+00
542, 2.80107236e+00, 3.07760364e+00, 3.36299125e+00
543, 3.07760364e+00, 3.36299125e+00, 3.63073216e+00
544, 3.36299125e+00, 3.63073216e+00, 3.90704212e+00
545, 3.63073216e+00, 3.90704212e+00, 4.19220054e+00
546, 3.90704212e+00, 4.19220054e+00, 4.48649440e+00
547, 4.19220054e+00, 4.48649440e+00, 4.79021827e+00
548, 4.48649440e+00, 4.79021827e+00, 5.07515935e+00
549, 4.79021827e+00, 5.07515935e+00, 5.36921151e+00
550, 5.07515935e+00, 5.36921151e+00, 5.67266513e+00
551, 5.36921151e+00, 5.67266513e+00, 5.98581867e+00
552, 5.67266513e+00, 5.98581867e+00, 6.00033814e+00
553, 1.68074109e+03, -2.38942711e+02, -8.35178013e+02
554, -2.38942711e+02, -8.35178013e+02, 1.71923666e+03
555, -8.35178013e+02, 1.71923666e+03, -2.36749403e+02
556, 1.71923666e+03, -2.36749403e+02, -8.34821987e+02
557, -2.36749403e+02, -8.34821987e+02, 2.06306839e+00
558, 1.77650000e+03, 1.83000000e+02, -8.51000000e+02
559, 1.77650000e+03, 1.83000000e+02, -8.51000000e+02
560, 1.83000000e+02, -8.51000000e+02, 3.06305885e+00
561, 1.77650000e+03, 1.83000000e+02, -8.51000000e+02
562, 2.59413612e+02, -1.44750000e+02, 2.59413612e+02
563, -1.44750000e+02, 2.59413612e+02, -9.37500000e+01
564, 1.77650000e+03, 1.64550381e+02, -8.61148039e+02
565, 1.64550381e+02, -8.61148039e+02, 1.00000000e+00
566, -8.61148039e+02, 1.00000000e+00, -5.18281703e-09
567, 1.00000000e+00, -5.18281703e-09, -1.48217621e-10
568, -1.48217621e-10, 1.11210707e-08, -3.64503557e-01
569, 1.11210707e-08, -3.64503557e-01, 8.77778625e+01
570, -3.64503557e-01, 8.77778625e+01, -1.48284159e-08
571, 8.77778625e+01, -1.48284159e-08, -2.86073289e+00
572, -1.48284159e-08, -2.86073289e+00, -1.18793883e-02
573, -8.71006417e-01, 1.00000000e+00, 4.59461046e+01
574, 1.77649667e+03, -7.64169453e+01, -8.35003333e+02
575, -7.64169453e+01, -8.35003333e+02, 1.77650333e+03
576, -8.35003333e+02, 1.77650333e+03, 3.30033333e+01
577, 1.77650333e+03, 3.30033333e+01, -8.34996667e+02
578, 1.77650000e+03, 1.13000000e+02, -9.16000000e+02
579, 1.89413612e+02, -1.58750000e+02, 1.89413612e+02
580, -1.58750000e+02, 1.89413612e+02, -1.42750000e+02
581, 1.97413612e+02, -1.58750000e+02, 2.40289105e+02
582, -1.58750000e+02, 2.40289105e+02, -1.58750000e+02
583, 1.77407082e+03, 1.85899183e+02, -9.16000000e+02
584, 1.00000000e+00, -1.57895867e-03, -2.49215510e+01
585, 2.38095238e-01, 2.38095238e-01, 1.00000000e+00
586, 2.38095238e-01, 1.00000000e+00, 1.00000000e+00
587, -7.65000000e+01, 3.73000000e+02, -7.65000000e+01
588, 3.73000000e+02, -7.65000000e+01, 3.89000000e+02
589, 1.77630659e+03, 1.63682082e+02, -8.51193410e+02
590, 1.63682082e+02, -8.51193410e+02, 1.77669341e+03
591, -8.51193410e+02, 1.77669341e+03, 1.67193410e+02
592, 1.77669341e+03, 1.67193410e+02, -8.50806590e+02
593, 1.77649667e+03, 1.61996667e+02, -8.51003333e+02
594, 1.61996667e+02, -8.51003333e+02, 1.77650333e+03
595, -8.51003333e+02, 1.77650333e+03, 1.63878826e+02
596, 1.77650333e+03, 1.63878826e+02, -8.50996667e+02
597, 1.77650000e+03, 1.63875493e+02, -7.83522306e+02
598, 1.63875493e+02, -7.83522306e+02, 3.06305885e+00
599, 1.77650000e+03, 1.63875493e+02, -7.83522306e+02
600, 1.63875493e+02, -7.83522306e+02, 3.06305885e+00
601, 1.77613477e+03, 1.63875493e+02, -7.83522306e+02
602, 1.77650000e+03, 1.63875493e+02, -7.83522306e+02
603, 1.77632280e+03, 1.63698288e+02, -8.51177205e+02
604, 1.63698288e+02, -8.51177205e+02, 1.77667720e+03
605, -8.51177205e+02, 1.77667720e+03, 1.64052697e+02
606, 1.77667720e+03, 1.64052697e+02, -8.48694251e+02
607, 1.77498452e+03, 1.62360016e+02, -8.50386932e+02
608, 1.62360016e+02, -8.50386932e+02, 1.77801548e+03
609, -8.50386932e+02, 1.77801548e+03, 1.65390969e+02
610, 1.77801548e+03, 1.65390969e+02, -7.82006830e+02
611, 1.77650000e+03, 1.83000000e+02, -9.16000000e+02
612, 1.83000000e+02, -9.16000000e+02, 1.77650000e+03
613, -9.16000000e+02, 1.77650000e+03, 1.83000000e+02
614, 1.77650000e+03, 1.83000000e+02, -9.02000000e+02
615, 1.83000000e+02, -9.02000000e+02, 1.81650000e+03
616, -9.02000000e+02, 1.81650000e+03, 1.83000000e+02
617, 1.81650000e+03, 1.83000000e+02, -9.16000000e+02
618, 1.83000000e+02, -9.16000000e+02, 1.81650000e+03
619, -9.16000000e+02, 1.81650000e+03, 1.83000000e+02
620, 1.81650000e+03, 1.83000000e+02, -9.02000000e+02
621, 1.77510612e+03, 1.11606121e+02, -9.17393879e+02
622, 1.11606121e+02, -9.17393879e+02, 1.77789388e+03
623, -9.17393879e+02, 1.77789388e+03, 1.65039664e+02
624, 1.77789388e+03, 1.65039664e+02, -9.14606121e+02
625, 1.65039664e+02, -9.14606121e+02, 2.06306839e+00
626, 1.77593790e+03, 1.63515428e+02, -8.51562096e+02
627, 1.63515428e+02, -8.51562096e+02, 1.77706210e+03
628, -8.51562096e+02, 1.77706210e+03, 1.83562096e+02
629, 1.77706210e+03, 1.83562096e+02, -8.50437904e+02
630, 1.83562096e+02, -8.50437904e+02, 2.06306839e+00
631, 1.77621392e+03, 1.63661817e+02, -9.16286076e+02
632, 1.63661817e+02, -9.16286076e+02, 1.77678608e+03
633, -9.16286076e+02, 1.77678608e+03, 1.83286076e+02
634, 1.77678608e+03, 1.83286076e+02, -9.15713924e+02
635, 1.16285500e-01, 1.16460910e-01, 1.16326177e-01
636, 1.16460910e-01, 1.16326177e-01, 8.83481005e-01
637, 1.77641363e+03, 1.82913626e+02, -9.16086374e+02
638, 1.82913626e+02, -9.16086374e+02, 1.79250333e+03
639, -9.16086374e+02, 1.79250333e+03, 1.83086374e+02
640, 1.79250333e+03, 1.83086374e+02, -9.01913626e+02
641, 1.79249667e+03, 1.82996667e+02, -9.02003333e+02
642, 1.82996667e+02, -9.02003333e+02, 1.79250333e+03
643, -9.02003333e+02, 1.79250333e+03, 1.83003333e+02
644, 1.79250333e+03, 1.83003333e+02, -8.50996667e+02
645, 1.77633963e+03, 1.82839626e+02, -9.02160374e+02
646, 1.82839626e+02, -9.02160374e+02, 1.79250333e+03
647, -9.02160374e+02, 1.79250333e+03, 1.83160374e+02
648, 1.79250333e+03, 1.83160374e+02, -8.50839626e+02
649, 1.79232938e+03, 1.68829377e+02, -9.16170623e+02
650, 1.68829377e+02, -9.16170623e+02, 1.79267062e+03
651, -9.16170623e+02, 1.79267062e+03, 1.83170623e+02
652, 1.79267062e+03, 1.83170623e+02, -9.15829377e+02
653, 1.79250000e+03, 1.83000000e+02, -7.83522306e+02
654, 1.83000000e+02, -7.83522306e+02, 3.06305885e+00
655, 1.16285500e-01, 1.16460910e-01, 8.83714500e-01
656, 1.16460910e-01, 8.83714500e-01, 8.83539090e-01
657, 1.16285500e-01, 1.16460910e-01, 8.83714500e-01
658, 1.16460910e-01, 8.83714500e-01, 8.83539090e-01
659, 1.69748190e+03, 1.80481899e+02, -7.99068816e+02
660, 1.80481899e+02, -7.99068816e+02, 1.77901810e+03
661, -7.99068816e+02, 1.77901810e+03, 1.85518101e+02
662, 1.77901810e+03, 1.85518101e+02, -7.94032613e+02
663, 1.85518101e+02, -7.94032613e+02, 2.06305885e+00
664, 1.77650000e+03, 1.83000000e+02, -7.96550715e+02
665, 1.83000000e+02, -7.96550715e+02, 2.06305885e+00
666, 1.69784901e+03, 1.80849011e+02, -8.53150989e+02
667, 1.80849011e+02, -8.53150989e+02, 1.77865099e+03
668, -8.53150989e+02, 1.77865099e+03, 1.85150989e+02
669, 1.77865099e+03, 1.85150989e+02, -7.95516644e+02
670, 1.77849667e+03, 1.82996667e+02, -7.96554048e+02
671, 1.82996667e+02, -7.96554048e+02, 1.77850333e+03
672, -7.96554048e+02, 1.77850333e+03, 1.83003333e+02
673, 1.77850333e+03, 1.83003333e+02, -7.83518973e+02
674, 1.77850000e+03, 1.83000000e+02, -7.83522306e+02
675, 1.83000000e+02, -7.83522306e+02, 2.06305885e+00
676, 1.77608440e+03, 1.82584399e+02, -7.96966315e+02
677, 1.82584399e+02, -7.96966315e+02, 1.77691560e+03
678, -7.96966315e+02, 1.77691560e+03, 1.83415601e+02
679, 1.77691560e+03, 1.83415601e+02, -7.83106706e+02
680, 1.24999999e-01, 4.78112682e-01, 1.00000000e+00
681, 4.78112682e-01, 1.00000000e+00, 4.78112682e-01
682, 1.62176191e+03, 1.81261910e+02, -8.52738090e+02
683, 1.81261910e+02, -8.52738090e+02, 1.70173809e+03
684, -8.52738090e+02, 1.70173809e+03, 1.84738090e+02
685, 1.70173809e+03, 1.84738090e+02, -8.49261910e+02
686, 1.84738090e+02, -8.49261910e+02, 3.06305885e+00
687, 1.62350000e+03, 1.83000000e+02, -8.51000000e+02
688, 1.62350000e+03, 1.83000000e+02, -8.51000000e+02
689, 1.83000000e+02, -8.51000000e+02, 3.06305885e+00
690, 1.62350000e+03, 1.83000000e+02, -8.51000000e+02
691, 1.62350000e+03, 1.83000000e+02, -8.51000000e+02
692, 1.83000000e+02, -8.51000000e+02, 1.62350000e+03
693, -8.51000000e+02, 1.62350000e+03, 1.83000000e+02
694, 1.62350000e+03, 1.83000000e+02, -7.96550715e+02
695, 1.83000000e+02, -7.96550715e+02, 1.58350000e+03
696, -7.96550715e+02, 1.58350000e+03, 1.83000000e+02
697, 1.58350000e+03, 1.83000000e+02, -8.51000000e+02
698, 1.83000000e+02, -8.51000000e+02, 1.58350000e+03
699, -8.51000000e+02, 1.58350000e+03, 1.83000000e+02
700, 1.58350000e+03, 1.83000000e+02, -7.96550715e+02
701, 1.62350000e+03, 1.83000000e+02, -9.02000000e+02
702, 1.83000000e+02, -9.02000000e+02, 1.62350000e+03
703, -9.02000000e+02, 1.62350000e+03, 1.83000000e+02
704, 1.62350000e+03, 1.83000000e+02, -8.51000000e+02
705, 1.83000000e+02, -8.51000000e+02, 1.58350000e+03
706, -8.51000000e+02, 1.58350000e+03, 1.83000000e+02
707, 1.58350000e+03, 1.83000000e+02, -9.02000000e+02
708, 1.83000000e+02, -9.02000000e+02, 1.58350000e+03
709, -9.02000000e+02, 1.58350000e+03, 1.83000000e+02
710, 1.58350000e+03, 1.83000000e+02, -8.51000000e+02
711, 1.60728702e+03, 1.82787016e+02, -7.96763699e+02
712, 1.82787016e+02, -7.96763699e+02, 1.62171298e+03
713, -7.96763699e+02, 1.62171298e+03, 1.83212984e+02
714, 1.62171298e+03, 1.83212984e+02, -7.96337730e+02
715, 1.62148460e+03, 1.82984599e+02, -7.96566115e+02
716, 1.82984599e+02, -7.96566115e+02, 1.62351540e+03
717, -7.96566115e+02, 1.62351540e+03, 1.83015401e+02
718, 1.62351540e+03, 1.83015401e+02, -7.96535314e+02
719, 1.60748460e+03, 1.82984599e+02, -8.51015401e+02
720, 1.82984599e+02, -8.51015401e+02, 1.62351540e+03
721, -8.51015401e+02, 1.62351540e+03, 1.83015401e+02
722, 1.62351540e+03, 1.83015401e+02, -7.96535314e+02
723, 1.60731758e+03, 1.82817580e+02, -7.96733135e+02
724, 1.82817580e+02, -7.96733135e+02, 1.60768242e+03
725, -7.96733135e+02, 1.60768242e+03, 1.83182420e+02
726, 1.60768242e+03, 1.83182420e+02, -7.83339886e+02
727, 1.69923523e+03, 1.82235233e+02, -7.84287073e+02
728, 1.82235233e+02, -7.84287073e+02, 1.70576477e+03
729, -7.84287073e+02, 1.70576477e+03, 1.83764767e+02
730, 1.70576477e+03, 1.83764767e+02, -7.82757539e+02
731, 1.71757498e+03, -2.55149450e+02, -8.39552122e+02
732, -2.55149450e+02, -8.39552122e+02, 1.89817916e+03
733, -8.39552122e+02, 1.89817916e+03, -2.12708996e+02
734, 1.89817916e+03, -2.12708996e+02, -8.30447878e+02
735, 1.69958460e+03, -2.53211058e+02, -8.35415403e+02
736, -2.53211058e+02, -8.35415403e+02, 1.72254250e+03
737, -8.35415403e+02, 1.72254250e+03, -2.50181925e+02
738, 1.72254250e+03, -2.50181925e+02, -8.34584597e+02
739, 1.70000000e+03, -2.52795655e+02, -8.35000000e+02
740, 1.70000000e+03, -2.52795655e+02, -8.35000000e+02
741, -2.52795655e+02, -8.35000000e+02, 2.06305885e+00
742, 1.70000000e+03, -2.52727981e+02, -8.35001702e+02
743, 1.69979242e+03, -2.53003234e+02, -8.35207579e+02
744, -2.53003234e+02, -8.35207579e+02, 1.70020758e+03
745, -8.35207579e+02, 1.70020758e+03, -2.38597271e+02
746, 1.70020758e+03, -2.38597271e+02, -8.34792421e+02
747, 1.90171148e+03, -2.15266947e+02, -8.35119832e+02
748, -2.15266947e+02, -8.35119832e+02, 1.90462247e+03
749, -8.35119832e+02, 1.90462247e+03, -2.01284503e+02
750, 1.90462247e+03, -2.01284503e+02, -8.34880168e+02
751, 1.50635756e+03, -2.50612730e+02, -8.35015401e+02
752, -2.50612730e+02, -8.35015401e+02, 1.67788830e+03
753, -8.35015401e+02, 1.67788830e+03, -2.17245717e+02
754, 1.67788830e+03, -2.17245717e+02, -8.34984599e+02
755, -2.17245717e+02, -8.34984599e+02, 3.06305885e+00
756, 1.67787290e+03, -2.50597329e+02, -8.35000000e+02
757, 1.67787290e+03, -2.50597329e+02, -8.35000000e+02
758, 1.50637296e+03, -2.17261117e+02, -8.35000000e+02
759, 1.50637296e+03, -2.17261117e+02, -8.35000000e+02
760, -2.17261117e+02, -8.35000000e+02, 2.06305885e+00
761, 1.50637296e+03, -2.17261117e+02, -8.35000000e+02
762, 2.62611757e+00, 1.04403670e+02, 2.21270995e+01
763, 1.04403670e+02, 2.21270995e+01, -1.13834058e+02
764, 2.21270995e+01, -1.13834058e+02, 2.86332483e+00
765, -1.13834058e+02, 2.86332483e+00, -1.13870064e+02
766, 2.86332483e+00, -1.13870064e+02, -2.21201029e+01
767, -1.13870064e+02, -2.21201029e+01, 5.56397978e-01
768, 1.94380309e+01, -7.77500000e+01, 1.97251098e+02
769, -7.77500000e+01, 1.97251098e+02, -7.77500000e+01
770, 1.50627098e+03, -2.17363094e+02, -8.35101976e+02
771, -2.17363094e+02, -8.35101976e+02, 1.50647494e+03
772, -8.35101976e+02, 1.50647494e+03, -2.02897108e+02
773, 1.50647494e+03, -2.02897108e+02, -8.34898024e+02
774, 1.49397122e+03, -2.18787255e+02, -8.36526137e+02
775, -2.18787255e+02, -8.36526137e+02, 1.50789910e+03
776, -8.36526137e+02, 1.50789910e+03, -2.13620978e+02
777, 1.50789910e+03, -2.13620978e+02, -8.33473863e+02
778, 1.49815328e+03, -2.03014485e+02, -8.35015401e+02
779, -2.03014485e+02, -8.35015401e+02, 1.50638836e+03
780, -8.35015401e+02, 1.50638836e+03, -2.01388934e+02
781, 1.50638836e+03, -2.01388934e+02, -8.34984599e+02
782, -2.01388934e+02, -8.34984599e+02, 3.06305885e+00
783, 1.49816867e+03, -2.01404411e+02, -8.35000000e+02
784, 1.49816816e+03, -2.01404312e+02, -8.34999374e+02
785, -2.01404312e+02, -8.34999374e+02, 3.06305885e+00
786, 1.50195136e+03, -2.00100407e+02, -8.32143544e+02
787, -2.00100407e+02, -8.32143544e+02, -6.24322427e-01
788, -8.32143544e+02, -6.24322427e-01, 1.21238003e-01
789, -6.24322427e-01, 1.21238003e-01, 7.71701272e-01
790, 1.21238003e-01, 7.71701272e-01, -1.85926294e+01
791, 7.71701272e-01, -1.85926294e+01, 6.07762167e+00
792, -1.85926294e+01, 6.07762167e+00, -1.59966488e+01
793, 6.07762167e+00, -1.59966488e+01, -5.45682465e+00
794, -1.59966488e+01, -5.45682465e+00, -2.00304317e+01
795, -5.45682465e+00, -2.00304317e+01, -1.26780726e+00
796, 1.91557410e+03, -1.98733008e+02, -8.46533041e+02
797, -1.98733008e+02, -8.46533041e+02, 3.06305885e+00
798, 1.91559302e+03, -1.98848026e+02, -8.46533042e+02
799, 1.91559252e+03, -1.98848122e+02, -8.46533649e+02
800, 1.91829113e+03, -2.12757000e+02, -8.46533042e+02
801, -2.12757000e+02, -8.46533042e+02, 3.06305885e+00
802, 1.91829976e+03, -2.12755323e+02, -8.46533041e+02
803, 1.91829176e+03, -2.12756877e+02, -8.46532258e+02
804, 2.12178610e-01, 1.00000000e+00, 2.12178610e-01
805, 1.21360160e-01, 7.99205208e-01, 8.71974217e-01
806, 7.99205208e-01, 8.71974217e-01, 8.83631782e-01
807, 1.91530972e+03, -2.13039679e+02, -8.46816452e+02
808, -2.13039679e+02, -8.46816452e+02, 1.91857457e+03
809, -8.46816452e+02, 1.91857457e+03, -1.98565320e+02
810, 1.91857457e+03, -1.98565320e+02, -8.46249455e+02
811, 8.71974228e-01, 2.64238590e-01, 8.84197185e-01
812, 2.64238590e-01, 8.84197185e-01, 8.83631914e-01
813, 1.88786933e+03, -1.35640655e+02, -8.86986969e+02
814, -1.35640655e+02, -8.86986969e+02, 1.88984327e+03
815, -8.86986969e+02, 1.88984327e+03, -1.33666716e+02
816, 1.88984327e+03, -1.33666716e+02, -8.34013031e+02
817, 1.40000000e+01, -1.28750000e+02, 1.40000000e+01
818, -1.28750000e+02, 1.40000000e+01, -7.77500000e+01
819, 1.74848056e+03, -1.61942425e+02, -8.35003053e+02
820, -1.61942425e+02, -8.35003053e+02, 1.88885936e+03
821, -8.35003053e+02, 1.88885936e+03, -1.34650633e+02
822, 1.88885936e+03, -1.34650633e+02, -8.34996947e+02
823, 1.87189818e+03, -1.39020462e+02, -8.49000000e+02
824, -1.39020462e+02, -8.49000000e+02, 1.87680632e+03
825, -8.49000000e+02, 1.87680632e+03, -1.38066417e+02
826, 1.87680632e+03, -1.38066417e+02, -8.49000000e+02
827, -1.38066417e+02, -8.49000000e+02, 1.87680632e+03
828, -8.49000000e+02, 1.87680632e+03, -1.38066417e+02
829, 1.87680632e+03, -1.38066417e+02, -8.54000000e+02
830, -1.38066417e+02, -8.54000000e+02, 1.87680632e+03
831, -8.54000000e+02, 1.87680632e+03, -1.38066417e+02
832, 1.87680632e+03, -1.38066417e+02, -8.59000000e+02
833, -1.38066417e+02, -8.59000000e+02, 1.87189818e+03
834, -8.59000000e+02, 1.87189818e+03, -1.39020462e+02
835, 1.87189818e+03, -1.39020462e+02, -8.59000000e+02
836, -1.39020462e+02, -8.59000000e+02, 1.86699005e+03
837, -8.59000000e+02, 1.86699005e+03, -1.39974507e+02
838, 1.86699005e+03, -1.39974507e+02, -8.59000000e+02
839, -1.39974507e+02, -8.59000000e+02, 1.86699005e+03
840, -8.59000000e+02, 1.86699005e+03, -1.39974507e+02
841, 1.86699005e+03, -1.39974507e+02, -8.54000000e+02
842, -1.39974507e+02, -8.54000000e+02, 1.86699005e+03
843, -8.54000000e+02, 1.86699005e+03, -1.39974507e+02
844, 1.86699005e+03, -1.39974507e+02, -8.49000000e+02
845, -1.39974507e+02, -8.49000000e+02, 1.87189818e+03
846, -8.49000000e+02, 1.87189818e+03, -1.39020462e+02
847, 1.87189818e+03, -1.39020462e+02, -8.49000000e+02
848, -1.39020462e+02, -8.49000000e+02, 1.86235774e+03
849, -8.49000000e+02, 1.86235774e+03, -8.99391030e+01
850, 1.86235774e+03, -8.99391030e+01, -8.49000000e+02
851, -8.99391030e+01, -8.49000000e+02, 1.86726587e+03
852, -8.49000000e+02, 1.86726587e+03, -8.89850581e+01
853, 1.86726587e+03, -8.89850581e+01, -8.49000000e+02
854, -8.89850581e+01, -8.49000000e+02, 1.86726587e+03
855, -8.49000000e+02, 1.86726587e+03, -8.89850581e+01
856, 1.86726587e+03, -8.89850581e+01, -8.54000000e+02
857, -8.89850581e+01, -8.54000000e+02, 1.86726587e+03
858, -8.54000000e+02, 1.86726587e+03, -8.89850581e+01
859, 1.86726587e+03, -8.89850581e+01, -8.59000000e+02
860, -8.89850581e+01, -8.59000000e+02, 1.86235774e+03
861, -8.59000000e+02, 1.86235774e+03, -8.99391030e+01
862, 1.86235774e+03, -8.99391030e+01, -8.59000000e+02
863, -8.99391030e+01, -8.59000000e+02, 1.85744960e+03
864, -8.59000000e+02, 1.85744960e+03, -9.08931480e+01
865, 1.85744960e+03, -9.08931480e+01, -8.59000000e+02
866, -9.08931480e+01, -8.59000000e+02, 1.85744960e+03
867, -8.59000000e+02, 1.85744960e+03, -9.08931480e+01
868, 1.85744960e+03, -9.08931480e+01, -8.54000000e+02
869, -9.08931480e+01, -8.54000000e+02, 1.85744960e+03
870, -8.54000000e+02, 1.85744960e+03, -9.08931480e+01
871, 1.85744960e+03, -9.08931480e+01, -8.49000000e+02
872, -9.08931480e+01, -8.49000000e+02, 1.86235774e+03
873, -8.49000000e+02, 1.86235774e+03, -8.99391030e+01
874, 1.86235774e+03, -8.99391030e+01, -8.49000000e+02
875, 1.00000000e+00, 7.07106781e-01, 1.00000000e+00
876, 7.07106781e-01, 1.00000000e+00, 7.07106781e-01
877, 1.00000000e+00, 7.07106781e-01, 1.00000000e+00
878, 7.07106781e-01, 1.00000000e+00, 7.07106781e-01
879, 1.00000000e+00, 7.07106781e-01, 1.00000000e+00
880, 7.07106781e-01, 1.00000000e+00, 7.07106781e-01
881, 1.00000000e+00, 7.07106781e-01, 1.00000000e+00
882, 7.07106781e-01, 1.00000000e+00, 1.00000000e+00
883, 1.00000000e+00, 1.00000000e+00, 7.07106781e-01
884, 1.00000000e+00, 7.07106781e-01, 1.00000000e+00
885, 7.07106781e-01, 1.00000000e+00, 7.07106781e-01
886, 1.00000000e+00, 7.07106781e-01, 1.00000000e+00
887, 7.07106781e-01, 1.00000000e+00, 7.07106781e-01
888, 1.00000000e+00, 7.07106781e-01, 1.00000000e+00
889, 7.07106781e-01, 1.00000000e+00, 7.07106781e-01
890, 1.00000000e+00, 7.07106781e-01, 1.00000000e+00
891, 1.74553873e+03, -1.62511799e+02, -8.35000000e+02
892, 1.85127517e+03, -1.28310872e+02, -8.35762377e+02
893, -1.28310872e+02, -8.35762377e+02, 1.88694711e+03
894, -8.35762377e+02, 1.88694711e+03, -1.20148576e+02
895, 1.88694711e+03, -1.20148576e+02, -8.34237595e+02
896, 1.52026567e+02, 7.84493725e+01, 1.86184978e+02
897, 7.84493725e+01, 1.86184978e+02, 8.50890949e+01
898, 1.74248274e+03, -1.62514852e+02, -8.35003053e+02
899, -1.62514852e+02, -8.35003053e+02, 1.74554179e+03
900, -8.35003053e+02, 1.74554179e+03, -1.46802711e+02
901, 1.74554179e+03, -1.46802711e+02, -8.34996947e+02
902, 1.65669643e-01, 1.32651262e+00, 2.48735559e+00
903, 1.32651262e+00, 2.48735559e+00, 3.64819857e+00
904, 2.48735559e+00, 3.64819857e+00, 4.80904154e+00
905, 3.64819857e+00, 4.80904154e+00, 5.96988452e+00
906, 4.80904154e+00, 5.96988452e+00, 7.13072749e+00
907, 5.96988452e+00, 7.13072749e+00, 8.29157047e+00
908, 7.13072749e+00, 8.29157047e+00, 9.45241344e+00
909, 8.29157047e+00, 9.45241344e+00, 1.06132564e+01
910, 9.45241344e+00, 1.06132564e+01, 1.17740994e+01
911, 1.06132564e+01, 1.17740994e+01, 1.29349424e+01
912, 1.17740994e+01, 1.29349424e+01, 1.40957853e+01
913, 1.29349424e+01, 1.40957853e+01, 1.52566283e+01
914, 1.40957853e+01, 1.52566283e+01, 1.60000000e+01
915, 1.90516008e+03, -2.00757288e+02, -8.46533041e+02
916, 1.90516045e+03, -2.00759176e+02, -8.46533041e+02
917, 1.90171140e+03, -2.01524750e+02, -8.46653480e+02
918, -2.01524750e+02, -8.46653480e+02, 1.91569127e+03
919, -8.46653480e+02, 1.91569127e+03, -1.98613205e+02
920, 1.91569127e+03, -1.98613205e+02, -8.34878937e+02
921, 1.16273117e-01, 1.16464059e-01, 8.83284234e-01
922, 1.16464059e-01, 8.83284234e-01, 8.83535941e-01
923, 1.16273117e-01, 1.16464059e-01, 8.83284234e-01
924, 1.16464059e-01, 8.83284234e-01, 8.83535941e-01
925, 1.18449101e-01, 6.76570401e-01, 8.81550899e-01
926, 6.76570401e-01, 8.81550899e-01, 8.79336261e-01
927, -4.05123438e+01, -8.88182621e+01, 4.05123438e+01
928, -8.88182621e+01, 4.05123438e+01, -8.84295015e+01
929, 1.89899450e+03, -2.18255223e+02, -9.16000000e+02
930, 1.89899450e+03, -2.18255223e+02, -9.16000000e+02
931, -2.18255223e+02, -9.16000000e+02, 2.06305885e+00
932, 1.89341010e+03, -2.17478056e+02, -8.46143952e+02
933, -2.17478056e+02, -8.46143952e+02, 1.90477099e+03
934, -8.46143952e+02, 1.90477099e+03, -2.15195035e+02
935, 1.90477099e+03, -2.15195035e+02, -8.34783061e+02
936, -4.05123438e+01, 8.62803510e+01, -2.95820004e+01
937, 8.62803510e+01, -2.95820004e+01, 9.73594372e+01
938, 1.90453865e+03, -2.16980447e+02, -9.10015879e+02
939, -2.16980447e+02, -9.10015879e+02, 1.90487092e+03
940, -9.10015879e+02, 1.90487092e+03, -2.15396573e+02
941, 1.90487092e+03, -2.15396573e+02, -8.45911612e+02
942, 1.90488375e+03, -2.17110468e+02, -9.16000000e+02
943, -2.17110468e+02, -9.16000000e+02, 3.06305885e+00
944, 1.90488375e+03, -2.17110468e+02, -9.16000000e+02
945, 4.71052061e-01, 1.84025146e-01, 6.09080642e-01
946, 1.84025146e-01, 6.09080642e-01, 8.64767602e-01
947, 1.90484623e+03, -2.17211852e+02, -9.10002572e+02
948, -2.17211852e+02, -9.10002572e+02, 1.91891115e+03
949, -9.10002572e+02, 1.91891115e+03, -2.13972225e+02
950, 1.91891115e+03, -2.13972225e+02, -9.09374877e+02
951, 1.90516008e+03, -2.16898004e+02, -9.09688724e+02
952, -2.16898004e+02, -9.09688724e+02, 2.06305885e+00
953, 1.90516008e+03, -2.16898004e+02, -9.09688724e+02
954, 9.47452844e-01, 9.47452844e-01, 1.00000000e+00
955, 9.47452844e-01, 1.00000000e+00, 1.00000000e+00
956, -2.95820004e+01, 9.73594372e+01, -2.89757872e+01
957, 9.73594372e+01, -2.89757872e+01, 9.79738999e+01
958, 1.90418033e+03, -2.15717927e+02, -8.46941550e+02
959, -2.15717927e+02, -8.46941550e+02, 1.91869309e+03
960, -8.46941550e+02, 1.91869309e+03, -2.12349765e+02
961, 1.91869309e+03, -2.12349765e+02, -8.34677687e+02
962, 1.90463442e+03, -2.17359796e+02, -9.16249328e+02
963, -2.17359796e+02, -9.16249328e+02, 1.91887637e+03
964, -9.16249328e+02, 1.91887637e+03, -2.14189715e+02
965, 1.91887637e+03, -2.14189715e+02, -9.15750672e+02
966, 1.87991360e+03, -1.20092505e+02, -9.16000000e+02
967, 1.87991360e+03, -1.20092505e+02, -9.16000000e+02
968, -1.20092505e+02, -9.16000000e+02, 2.06305885e+00
969, 1.86896040e+03, -1.23906875e+02, -8.49000000e+02
970, 1.86896040e+03, -1.23906875e+02, -8.49000000e+02
971, -1.23906875e+02, -8.49000000e+02, 3.06305885e+00
972, 1.87940245e+03, -1.20603650e+02, -9.16511146e+02
973, -1.20603650e+02, -9.16511146e+02, 1.88631426e+03
974, -9.16511146e+02, 1.88631426e+03, -1.18436553e+02
975, 1.88631426e+03, -1.18436553e+02, -9.15488854e+02
976, 1.85111880e+03, -1.28121675e+02, -9.16918744e+02
977, -1.28121675e+02, -9.16918744e+02, 1.88675791e+03
978, -9.16918744e+02, 1.88675791e+03, -1.18897900e+02
979, 1.88675791e+03, -1.18897900e+02, -8.34426792e+02
980, 1.49987083e-01, 1.00000000e+00, 1.49993718e-01
981, 1.69957141e+03, 1.63446902e+02, -7.83950897e+02
982, 1.63446902e+02, -7.83950897e+02, 1.70542859e+03
983, -7.83950897e+02, 1.70542859e+03, 1.64315380e+02
984, 1.70542859e+03, 1.64315380e+02, -7.83093715e+02
985, 1.70000000e+03, 1.63886789e+02, -7.83522306e+02
986, 1.63886789e+02, -7.83522306e+02, 2.06305885e+00
987, 1.70000000e+03, 1.63886789e+02, -7.83522306e+02
988, 1.62348460e+03, 1.63860092e+02, -8.51015401e+02
989, 1.63860092e+02, -8.51015401e+02, 1.62351540e+03
990, -8.51015401e+02, 1.62351540e+03, 1.63890893e+02
991, 1.62351540e+03, 1.63890893e+02, -8.48856055e+02
992, 1.63890893e+02, -8.48856055e+02, 3.06305885e+00
993, 1.62350000e+03, 1.63875493e+02, -8.51000000e+02
994, 1.62350000e+03, 1.63875493e+02, -8.51000000e+02
995, 1.63875493e+02, -8.51000000e+02, 3.06305885e+00
996, 1.62350000e+03, 1.63875493e+02, -8.48871456e+02
997, 1.62350000e+03, 1.63875493e+02, -8.48871456e+02
998, 5.00000000e+00, 5.00000000e+00, 7.65000000e+01
999, 5.00000000e+00, 7.65000000e+01, 7.65000000e+01
1000, -9.37500000e+01, -9.37500000e+01, -2.84008503e+01
1001, -9.37500000e+01, -2.84008503e+01, -2.84008503e+01
1002, 1.69500000e+03, 1.63875493e+02, -8.51000000e+02
1003, 1.63875493e+02, -8.51000000e+02, 2.06305885e+00
1004, 5.00000000e+00, -9.37500000e+01, 7.65000000e+01
1005, -9.37500000e+01, 7.65000000e+01, -9.37500000e+01
1006, 7.03197212e+00, 1.40639443e+01, 2.10959164e+01
1007, 1.40639443e+01, 2.10959164e+01, 2.81278885e+01
1008, 2.10959164e+01, 2.81278885e+01, 3.51598607e+01
1009, 2.81278885e+01, 3.51598607e+01, 4.21918328e+01
1010, 3.51598607e+01, 4.21918328e+01, 4.92238050e+01
1011, 4.21918328e+01, 4.92238050e+01, 5.62557771e+01
1012, 4.92238050e+01, 5.62557771e+01, 6.32877493e+01
1013, 1.62386523e+03, 1.63875493e+02, -7.83522306e+02
1014, 1.63875493e+02, -7.83522306e+02, 3.06305885e+00
1015, 1.62350000e+03, 1.63875493e+02, -7.83522306e+02
1016, 1.63875493e+02, -7.83522306e+02, 3.06305885e+00
1017, 1.62386523e+03, 1.63875493e+02, -7.83522306e+02
1018, 1.59375643e+03, -1.34412508e+02, -8.35000000e+02
1019, 1.59375643e+03, -1.34412508e+02, -8.35000000e+02
1020, -1.34412508e+02, -8.35000000e+02, 3.06305885e+00
1021, 1.60594935e+03, -1.21231694e+02, -8.35000000e+02
1022, 1.62350000e+03, -7.64136120e+01, -8.95000000e+02
1023, -7.64136120e+01, -8.95000000e+02, 1.62350000e+03
1024, -8.95000000e+02, 1.62350000e+03, -7.69163557e+01
1025, 1.62350000e+03, -7.69163557e+01, -8.95000000e+02
1026, -7.69163557e+01, -8.95000000e+02, 1.62349234e+03
1027, -8.95000000e+02, 1.62349234e+03, -7.74190412e+01
1028, 1.62349234e+03, -7.74190412e+01, -8.95000000e+02
1029, -7.74190412e+01, -8.95000000e+02, 1.62348468e+03
1030, -8.95000000e+02, 1.62348468e+03, -7.79217266e+01
1031, 1.62348468e+03, -7.79217266e+01, -8.95000000e+02
1032, -7.79217266e+01, -8.95000000e+02, 1.62346937e+03
1033, -8.95000000e+02, 1.62346937e+03, -7.84242370e+01
1034, 1.62346937e+03, -7.84242370e+01, -8.95000000e+02
1035, -7.84242370e+01, -8.95000000e+02, 1.62345405e+03
1036, -8.95000000e+02, 1.62345405e+03, -7.89267475e+01
1037, 1.62345405e+03, -7.89267475e+01, -8.95000000e+02
1038, -7.89267475e+01, -8.95000000e+02, 1.62343108e+03
1039, -8.95000000e+02, 1.62343108e+03, -7.94289663e+01
1040, 1.62343108e+03, -7.94289663e+01, -8.95000000e+02
1041, -7.94289663e+01, -8.95000000e+02, 1.62340811e+03
1042, -8.95000000e+02, 1.62340811e+03, -7.99311851e+01
1043, 1.62340811e+03, -7.99311851e+01, -8.95000000e+02
1044, -7.99311851e+01, -8.95000000e+02, 1.62337750e+03
1045, -8.95000000e+02, 1.62337750e+03, -8.04329957e+01
1046, 1.62337750e+03, -8.04329957e+01, -8.95000000e+02
1047, -8.04329957e+01, -8.95000000e+02, 1.62334688e+03
1048, -8.95000000e+02, 1.62334688e+03, -8.09348063e+01
1049, 1.62334688e+03, -8.09348063e+01, -8.95000000e+02
1050, -8.09348063e+01, -8.95000000e+02, 1.62330862e+03
1051, -8.95000000e+02, 1.62330862e+03, -8.14360923e+01
1052, 1.62330862e+03, -8.14360923e+01, -8.95000000e+02
1053, -8.14360923e+01, -8.95000000e+02, 1.62327036e+03
1054, -8.95000000e+02, 1.62327036e+03, -8.19373783e+01
1055, 1.62327036e+03, -8.19373783e+01, -8.95000000e+02
1056, -8.19373783e+01, -8.95000000e+02, 1.62322447e+03
1057, -8.95000000e+02, 1.62322447e+03, -8.24380233e+01
1058, 1.62322447e+03, -8.24380233e+01, -8.95000000e+02
1059, -8.24380233e+01, -8.95000000e+02, 1.62317858e+03
1060, -8.95000000e+02, 1.62317858e+03, -8.29386683e+01
1061, 1.62317858e+03, -8.29386683e+01, -8.95000000e+02
1062, -8.29386683e+01, -8.95000000e+02, 1.62312507e+03
1063, -8.95000000e+02, 1.62312507e+03, -8.34385561e+01
1064, 1.62312507e+03, -8.34385561e+01, -8.95000000e+02
1065, -8.34385561e+01, -8.95000000e+02, 1.62307156e+03
1066, -8.95000000e+02, 1.62307156e+03, -8.39384439e+01
1067, 1.62307156e+03, -8.39384439e+01, -8.95000000e+02
1068, -8.39384439e+01, -8.95000000e+02, 1.62301044e+03
1069, -8.95000000e+02, 1.62301044e+03, -8.44374586e+01
1070, 1.62301044e+03, -8.44374586e+01, -8.95000000e+02
1071, -8.44374586e+01, -8.95000000e+02, 1.62294932e+03
1072, -8.95000000e+02, 1.62294932e+03, -8.49364732e+01
1073, 1.62294932e+03, -8.49364732e+01, -8.95000000e+02
1074, -8.49364732e+01, -8.95000000e+02, 1.62288061e+03
1075, -8.95000000e+02, 1.62288061e+03, -8.54344989e+01
1076, 1.62288061e+03, -8.54344989e+01, -8.95000000e+02
1077, -8.54344989e+01, -8.95000000e+02, 1.62281189e+03
1078, -8.95000000e+02, 1.62281189e+03, -8.59325245e+01
1079, 1.62281189e+03, -8.59325245e+01, -8.95000000e+02
1080, -8.59325245e+01, -8.95000000e+02, 1.62273560e+03
1081, -8.95000000e+02, 1.62273560e+03, -8.64294456e+01
1082, 1.62273560e+03, -8.64294456e+01, -8.95000000e+02
1083, -8.64294456e+01, -8.95000000e+02, 1.62265930e+03
1084, -8.95000000e+02, 1.62265930e+03, -8.69263666e+01
1085, 1.62265930e+03, -8.69263666e+01, -8.95000000e+02
1086, -8.69263666e+01, -8.95000000e+02, 1.62257545e+03
1087, -8.95000000e+02, 1.62257545e+03, -8.74220678e+01
1088, 1.62257545e+03, -8.74220678e+01, -8.95000000e+02
1089, -8.74220678e+01, -8.95000000e+02, 1.62249159e+03
1090, -8.95000000e+02, 1.62249159e+03, -8.79177689e+01
1091, 1.62249159e+03, -8.79177689e+01, -8.95000000e+02
1092, -8.79177689e+01, -8.95000000e+02, 1.62240020e+03
1093, -8.95000000e+02, 1.62240020e+03, -8.84121351e+01
1094, 1.62240020e+03, -8.84121351e+01, -8.95000000e+02
1095, -8.84121351e+01, -8.95000000e+02, 1.62230880e+03
1096, -8.95000000e+02, 1.62230880e+03, -8.89065013e+01
1097, 1.62230880e+03, -8.89065013e+01, -8.95000000e+02
1098, -8.89065013e+01, -8.95000000e+02, 1.62220988e+03
1099, -8.95000000e+02, 1.62220988e+03, -8.93994179e+01
1100, 1.62220988e+03, -8.93994179e+01, -8.95000000e+02
1101, -8.93994179e+01, -8.95000000e+02, 1.62211096e+03
1102, -8.95000000e+02, 1.62211096e+03, -8.98923344e+01
1103, 1.62211096e+03, -8.98923344e+01, -8.95000000e+02
1104, -8.98923344e+01, -8.95000000e+02, 1.62200455e+03
1105, -8.95000000e+02, 1.62200455e+03, -9.03836868e+01
1106, 1.62200455e+03, -9.03836868e+01, -8.95000000e+02
1107, -9.03836868e+01, -8.95000000e+02, 1.62189814e+03
1108, -8.95000000e+02, 1.62189814e+03, -9.08750393e+01
1109, 1.62189814e+03, -9.08750393e+01, -8.95000000e+02
1110, -9.08750393e+01, -8.95000000e+02, 1.62178425e+03
1111, -8.95000000e+02, 1.62178425e+03, -9.13647136e+01
1112, 1.62178425e+03, -9.13647136e+01, -8.95000000e+02
1113, -9.13647136e+01, -8.95000000e+02, 1.62167036e+03
1114, -8.95000000e+02, 1.62167036e+03, -9.18543879e+01
1115, 1.62167036e+03, -9.18543879e+01, -8.95000000e+02
1116, -9.18543879e+01, -8.95000000e+02, 1.62154903e+03
1117, -8.95000000e+02, 1.62154903e+03, -9.23422705e+01
1118, 1.62154903e+03, -9.23422705e+01, -8.95000000e+02
1119, -9.23422705e+01, -8.95000000e+02, 1.62142769e+03
1120, -8.95000000e+02, 1.62142769e+03, -9.28301530e+01
1121, 1.62142769e+03, -9.28301530e+01, -8.95000000e+02
1122, -9.28301530e+01, -8.95000000e+02, 1.62129894e+03
1123, -8.95000000e+02, 1.62129894e+03, -9.33161306e+01
1124, 1.62129894e+03, -9.33161306e+01, -8.95000000e+02
1125, -9.33161306e+01, -8.95000000e+02, 1.62117019e+03
1126, -8.95000000e+02, 1.62117019e+03, -9.38021082e+01
1127, 1.62117019e+03, -9.38021082e+01, -8.95000000e+02
1128, -9.38021082e+01, -8.95000000e+02, 1.62103405e+03
1129, -8.95000000e+02, 1.62103405e+03, -9.42860680e+01
1130, 1.62103405e+03, -9.42860680e+01, -8.95000000e+02
1131, -9.42860680e+01, -8.95000000e+02, 1.62089791e+03
1132, -8.95000000e+02, 1.62089791e+03, -9.47700278e+01
1133, 1.62089791e+03, -9.47700278e+01, -8.95000000e+02
1134, -9.47700278e+01, -8.95000000e+02, 1.62075441e+03
1135, -8.95000000e+02, 1.62075441e+03, -9.52518575e+01
1136, 1.62075441e+03, -9.52518575e+01, -8.95000000e+02
1137, -9.52518575e+01, -8.95000000e+02, 1.62061091e+03
1138, -8.95000000e+02, 1.62061091e+03, -9.57336872e+01
1139, 1.62061091e+03, -9.57336872e+01, -8.95000000e+02
1140, -9.57336872e+01, -8.95000000e+02, 1.62046009e+03
1141, -8.95000000e+02, 1.62046009e+03, -9.62132750e+01
1142, 1.62046009e+03, -9.62132750e+01, -8.95000000e+02
1143, -9.62132750e+01, -8.95000000e+02, 1.62030927e+03
1144, -8.95000000e+02, 1.62030927e+03, -9.66928628e+01
1145, 1.62030927e+03, -9.66928628e+01, -8.95000000e+02
1146, -9.66928628e+01, -8.95000000e+02, 1.62015116e+03
1147, -8.95000000e+02, 1.62015116e+03, -9.71700974e+01
1148, 1.62015116e+03, -9.71700974e+01, -8.95000000e+02
1149, -9.71700974e+01, -8.95000000e+02, 1.61999305e+03
1150, -8.95000000e+02, 1.61999305e+03, -9.76473320e+01
1151, 1.61999305e+03, -9.76473320e+01, -8.95000000e+02
1152, -9.76473320e+01, -8.95000000e+02, 1.61982769e+03
1153, -8.95000000e+02, 1.61982769e+03, -9.81221026e+01
1154, 1.61982769e+03, -9.81221026e+01, -8.95000000e+02
1155, -9.81221026e+01, -8.95000000e+02, 1.61966233e+03
1156, -8.95000000e+02, 1.61966233e+03, -9.85968732e+01
1157, 1.61966233e+03, -9.85968732e+01, -8.95000000e+02
1158, -9.85968732e+01, -8.95000000e+02, 1.61948976e+03
1159, -8.95000000e+02, 1.61948976e+03, -9.90690697e+01
1160, 1.61948976e+03, -9.90690697e+01, -8.95000000e+02
1161, -9.90690697e+01, -8.95000000e+02, 1.61931719e+03
1162, -8.95000000e+02, 1.61931719e+03, -9.95412661e+01
1163, 1.61931719e+03, -9.95412661e+01, -8.95000000e+02
1164, -9.95412661e+01, -8.95000000e+02, 1.61913744e+03
1165, -8.95000000e+02, 1.61913744e+03, -1.00010779e+02
1166, 1.61913744e+03, -1.00010779e+02, -8.95000000e+02
1167, -1.00010779e+02, -8.95000000e+02, 1.61895769e+03
1168, -8.95000000e+02, 1.61895769e+03, -1.00480291e+02
1169, 1.61895769e+03, -1.00480291e+02, -8.95000000e+02
1170, -1.00480291e+02, -8.95000000e+02, 1.61877081e+03
1171, -8.95000000e+02, 1.61877081e+03, -1.00947011e+02
1172, 1.61877081e+03, -1.00947011e+02, -8.95000000e+02
1173, -1.00947011e+02, -8.95000000e+02, 1.61858393e+03
1174, -8.95000000e+02, 1.61858393e+03, -1.01413731e+02
1175, 1.61858393e+03, -1.01413731e+02, -8.95000000e+02
1176, -1.01413731e+02, -8.95000000e+02, 1.61838997e+03
1177, -8.95000000e+02, 1.61838997e+03, -1.01877550e+02
1178, 1.61838997e+03, -1.01877550e+02, -8.95000000e+02
1179, -1.01877550e+02, -8.95000000e+02, 1.61819600e+03
1180, -8.95000000e+02, 1.61819600e+03, -1.02341369e+02
1181, 1.61819600e+03, -1.02341369e+02, -8.95000000e+02
1182, -1.02341369e+02, -8.95000000e+02, 1.61799499e+03
1183, -8.95000000e+02, 1.61799499e+03, -1.02802180e+02
1184, 1.61799499e+03, -1.02802180e+02, -8.95000000e+02
1185, -1.02802180e+02, -8.95000000e+02, 1.61779398e+03
1186, -8.95000000e+02, 1.61779398e+03, -1.03262990e+02
1187, 1.61779398e+03, -1.03262990e+02, -8.95000000e+02
1188, -1.03262990e+02, -8.95000000e+02, 1.61758597e+03
1189, -8.95000000e+02, 1.61758597e+03, -1.03720685e+02
1190, 1.61758597e+03, -1.03720685e+02, -8.95000000e+02
1191, -1.03720685e+02, -8.95000000e+02, 1.61737796e+03
1192, -8.95000000e+02, 1.61737796e+03, -1.04178379e+02
1193, 1.61737796e+03, -1.04178379e+02, -8.95000000e+02
1194, -1.04178379e+02, -8.95000000e+02, 1.61716301e+03
1195, -8.95000000e+02, 1.61716301e+03, -1.04632852e+02
1196, 1.61716301e+03, -1.04632852e+02, -8.95000000e+02
1197, -1.04632852e+02, -8.95000000e+02, 1.61694805e+03
1198, -8.95000000e+02, 1.61694805e+03, -1.05087325e+02
1199, 1.61694805e+03, -1.05087325e+02, -8.95000000e+02
1200, -1.05087325e+02, -8.95000000e+02, 1.61672620e+03
1201, -8.95000000e+02, 1.61672620e+03, -1.05538470e+02
1202, 1.61672620e+03, -1.05538470e+02, -8.95000000e+02
1203, -1.05538470e+02, -8.95000000e+02, 1.61650435e+03
1204, -8.95000000e+02, 1.61650435e+03, -1.05989616e+02
1205, 1.61650435e+03, -1.05989616e+02, -8.95000000e+02
1206, -1.05989616e+02, -8.95000000e+02, 1.61627564e+03
1207, -8.95000000e+02, 1.61627564e+03, -1.06437329e+02
1208, 1.61627564e+03, -1.06437329e+02, -8.95000000e+02
1209, -1.06437329e+02, -8.95000000e+02, 1.61604694e+03
1210, -8.95000000e+02, 1.61604694e+03, -1.06885043e+02
1211, 1.61604694e+03, -1.06885043e+02, -8.95000000e+02
1212, -1.06885043e+02, -8.95000000e+02, 1.61581145e+03
1213, -8.95000000e+02, 1.61581145e+03, -1.07329220e+02
1214, 1.61581145e+03, -1.07329220e+02, -8.95000000e+02
1215, -1.07329220e+02, -8.95000000e+02, 1.61557596e+03
1216, -8.95000000e+02, 1.61557596e+03, -1.07773398e+02
1217, 1.61557596e+03, -1.07773398e+02, -8.95000000e+02
1218, -1.07773398e+02, -8.95000000e+02, 1.61533372e+03
1219, -8.95000000e+02, 1.61533372e+03, -1.08213936e+02
1220, 1.61533372e+03, -1.08213936e+02, -8.95000000e+02
1221, -1.08213936e+02, -8.95000000e+02, 1.61509149e+03
1222, -8.95000000e+02, 1.61509149e+03, -1.08654475e+02
1223, 1.61509149e+03, -1.08654475e+02, -8.95000000e+02
1224, -1.08654475e+02, -8.95000000e+02, 1.61484257e+03
1225, -8.95000000e+02, 1.61484257e+03, -1.09091272e+02
1226, 1.61484257e+03, -1.09091272e+02, -8.95000000e+02
1227, -1.09091272e+02, -8.95000000e+02, 1.61459366e+03
1228, -8.95000000e+02, 1.61459366e+03, -1.09528070e+02
1229, 1.61459366e+03, -1.09528070e+02, -8.95000000e+02
1230, -1.09528070e+02, -8.95000000e+02, 1.61433811e+03
1231, -8.95000000e+02, 1.61433811e+03, -1.09961024e+02
1232, 1.61433811e+03, -1.09961024e+02, -8.95000000e+02
1233, -1.09961024e+02, -8.95000000e+02, 1.61408257e+03
1234, -8.95000000e+02, 1.61408257e+03, -1.10393979e+02
1235, 1.61408257e+03, -1.10393979e+02, -8.95000000e+02
1236, -1.10393979e+02, -8.95000000e+02, 1.61382046e+03
1237, -8.95000000e+02, 1.61382046e+03, -1.10822990e+02
1238, 1.61382046e+03, -1.10822990e+02, -8.95000000e+02
1239, -1.10822990e+02, -8.95000000e+02, 1.61355836e+03
1240, -8.95000000e+02, 1.61355836e+03, -1.11252002e+02
1241, 1.61355836e+03, -1.11252002e+02, -8.95000000e+02
1242, -1.11252002e+02, -8.95000000e+02, 1.61328974e+03
1243, -8.95000000e+02, 1.61328974e+03, -1.11676971e+02
1244, 1.61328974e+03, -1.11676971e+02, -8.95000000e+02
1245, -1.11676971e+02, -8.95000000e+02, 1.61302113e+03
1246, -8.95000000e+02, 1.61302113e+03, -1.12101940e+02
1247, 1.61302113e+03, -1.12101940e+02, -8.95000000e+02
1248, -1.12101940e+02, -8.95000000e+02, 1.61274608e+03
1249, -8.95000000e+02, 1.61274608e+03, -1.12522767e+02
1250, 1.61274608e+03, -1.12522767e+02, -8.95000000e+02
1251, -1.12522767e+02, -8.95000000e+02, 1.61247102e+03
1252, -8.95000000e+02, 1.61247102e+03, -1.12943595e+02
1253, 1.61247102e+03, -1.12943595e+02, -8.95000000e+02
1254, -1.12943595e+02, -8.95000000e+02, 1.61218959e+03
1255, -8.95000000e+02, 1.61218959e+03, -1.13360183e+02
1256, 1.61218959e+03, -1.13360183e+02, -8.95000000e+02
1257, -1.13360183e+02, -8.95000000e+02, 1.61190815e+03
1258, -8.95000000e+02, 1.61190815e+03, -1.13776772e+02
1259, 1.61190815e+03, -1.13776772e+02, -8.95000000e+02
1260, -1.13776772e+02, -8.95000000e+02, 1.61162040e+03
1261, -8.95000000e+02, 1.61162040e+03, -1.14189025e+02
1262, 1.61162040e+03, -1.14189025e+02, -8.95000000e+02
1263, -1.14189025e+02, -8.95000000e+02, 1.61133266e+03
1264, -8.95000000e+02, 1.61133266e+03, -1.14601278e+02
1265, 1.61133266e+03, -1.14601278e+02, -8.95000000e+02
1266, -1.14601278e+02, -8.95000000e+02, 1.61103866e+03
1267, -8.95000000e+02, 1.61103866e+03, -1.15009100e+02
1268, 1.61103866e+03, -1.15009100e+02, -8.95000000e+02
1269, -1.15009100e+02, -8.95000000e+02, 1.61074467e+03
1270, -8.95000000e+02, 1.61074467e+03, -1.15416921e+02
1271, 1.61074467e+03, -1.15416921e+02, -8.95000000e+02
1272, -1.15416921e+02, -8.95000000e+02, 1.61044449e+03
1273, -8.95000000e+02, 1.61044449e+03, -1.15820217e+02
1274, 1.61044449e+03, -1.15820217e+02, -8.95000000e+02
1275, -1.15820217e+02, -8.95000000e+02, 1.61014432e+03
1276, -8.95000000e+02, 1.61014432e+03, -1.16223513e+02
1277, 1.61014432e+03, -1.16223513e+02, -8.95000000e+02
1278, -1.16223513e+02, -8.95000000e+02, 1.60983804e+03
1279, -8.95000000e+02, 1.60983804e+03, -1.16622189e+02
1280, 1.60983804e+03, -1.16622189e+02, -8.95000000e+02
1281, -1.16622189e+02, -8.95000000e+02, 1.60953176e+03
1282, -8.95000000e+02, 1.60953176e+03, -1.17020865e+02
1283, 1.60953176e+03, -1.17020865e+02, -8.95000000e+02
1284, -1.17020865e+02, -8.95000000e+02, 1.60921944e+03
1285, -8.95000000e+02, 1.60921944e+03, -1.17414829e+02
1286, 1.60921944e+03, -1.17414829e+02, -8.95000000e+02
1287, -1.17414829e+02, -8.95000000e+02, 1.60890712e+03
1288, -8.95000000e+02, 1.60890712e+03, -1.17808793e+02
1289, 1.60890712e+03, -1.17808793e+02, -8.95000000e+02
1290, -1.17808793e+02, -8.95000000e+02, 1.60858883e+03
1291, -8.95000000e+02, 1.60858883e+03, -1.18197953e+02
1292, 1.60858883e+03, -1.18197953e+02, -8.95000000e+02
1293, -1.18197953e+02, -8.95000000e+02, 1.60827055e+03
1294, -8.95000000e+02, 1.60827055e+03, -1.18587114e+02
1295, 1.60827055e+03, -1.18587114e+02, -8.95000000e+02
1296, -1.18587114e+02, -8.95000000e+02, 1.60794637e+03
1297, -8.95000000e+02, 1.60794637e+03, -1.18971381e+02
1298, 1.60794637e+03, -1.18971381e+02, -8.95000000e+02
1299, -1.18971381e+02, -8.95000000e+02, 1.60762219e+03
1300, -8.95000000e+02, 1.60762219e+03, -1.19355647e+02
1301, 1.60762219e+03, -1.19355647e+02, -8.95000000e+02
1302, -1.19355647e+02, -8.95000000e+02, 1.60729220e+03
1303, -8.95000000e+02, 1.60729220e+03, -1.19734931e+02
1304, 1.60729220e+03, -1.19734931e+02, -8.95000000e+02
1305, -1.19734931e+02, -8.95000000e+02, 1.60696221e+03
1306, -8.95000000e+02, 1.60696221e+03, -1.20114214e+02
1307, 1.60696221e+03, -1.20114214e+02, -8.95000000e+02
1308, -1.20114214e+02, -8.95000000e+02, 1.60662648e+03
1309, -8.95000000e+02, 1.60662648e+03, -1.20488427e+02
1310, 1.60662648e+03, -1.20488427e+02, -8.95000000e+02
1311, -1.20488427e+02, -8.95000000e+02, 1.60629074e+03
1312, -8.95000000e+02, 1.60629074e+03, -1.20862640e+02
1313, 1.60629074e+03, -1.20862640e+02, -8.95000000e+02
1314, -1.20862640e+02, -8.95000000e+02, 1.60594935e+03
1315, -8.95000000e+02, 1.60594935e+03, -1.21231694e+02
1316, 1.60594935e+03, -1.21231694e+02, -8.95000000e+02
1317, -1.21231694e+02, -8.95000000e+02, 1.59985289e+03
1318, -8.95000000e+02, 1.59985289e+03, -1.27822101e+02
1319, 1.59985289e+03, -1.27822101e+02, -8.95000000e+02
1320, -1.27822101e+02, -8.95000000e+02, 1.59375643e+03
1321, -8.95000000e+02, 1.59375643e+03, -1.34412508e+02
1322, 1.59375643e+03, -1.34412508e+02, -8.95000000e+02
1323, -1.34412508e+02, -8.95000000e+02, 1.62350000e+03
1324, -8.95000000e+02, 1.62350000e+03, -7.64136120e+01
1325, 1.62350000e+03, -7.64136120e+01, -8.35000000e+02
1326, -7.64136120e+01, -8.35000000e+02, 1.62350000e+03
1327, -8.35000000e+02, 1.62350000e+03, -7.69163557e+01
1328, 1.62350000e+03, -7.69163557e+01, -8.35000000e+02
1329, -7.69163557e+01, -8.35000000e+02, 1.62349234e+03
1330, -8.35000000e+02, 1.62349234e+03, -7.74190412e+01
1331, 1.62349234e+03, -7.74190412e+01, -8.35000000e+02
1332, -7.74190412e+01, -8.35000000e+02, 1.62348468e+03
1333, -8.35000000e+02, 1.62348468e+03, -7.79217266e+01
1334, 1.62348468e+03, -7.79217266e+01, -8.35000000e+02
1335, -7.79217266e+01, -8.35000000e+02, 1.62346937e+03
1336, -8.35000000e+02, 1.62346937e+03, -7.84242370e+01
1337, 1.62346937e+03, -7.84242370e+01, -8.35000000e+02
1338, -7.84242370e+01, -8.35000000e+02, 1.62345405e+03
1339, -8.35000000e+02, 1.62345405e+03, -7.89267475e+01
1340, 1.62345405e+03, -7.89267475e+01, -8.35000000e+02
1341, -7.89267475e+01, -8.35000000e+02, 1.62343108e+03
1342, -8.35000000e+02, 1.62343108e+03, -7.94289663e+01
1343, 1.62343108e+03, -7.94289663e+01, -8.35000000e+02
1344, -7.94289663e+01, -8.35000000e+02, 1.62340811e+03
1345, -8.35000000e+02, 1.62340811e+03, -7.99311851e+01
1346, 1.62340811e+03, -7.99311851e+01, -8.35000000e+02
1347, -7.99311851e+01, -8.35000000e+02, 1.62337750e+03
1348, -8.35000000e+02, 1.62337750e+03, -8.04329957e+01
1349, 1.62337750e+03, -8.04329957e+01, -8.35000000e+02
1350, -8.04329957e+01, -8.35000000e+02, 1.62334688e+03
1351, -8.35000000e+02, 1.62334688e+03, -8.09348063e+01
1352, 1.62334688e+03, -8.09348063e+01, -8.35000000e+02
1353, -8.09348063e+01, -8.35000000e+02, 1.62330862e+03
1354, -8.35000000e+02, 1.62330862e+03, -8.14360923e+01
1355, 1.62330862e+03, -8.14360923e+01, -8.35000000e+02
1356, -8.14360923e+01, -8.35000000e+02, 1.62327036e+03
1357, -8.35000000e+02, 1.62327036e+03, -8.19373783e+01
1358, 1.62327036e+03, -8.19373783e+01, -8.35000000e+02
1359, -8.19373783e+01, -8.35000000e+02, 1.62322447e+03
1360, -8.35000000e+02, 1.62322447e+03, -8.24380233e+01
1361, 1.62322447e+03, -8.24380233e+01, -8.35000000e+02
1362, -8.24380233e+01, -8.35000000e+02, 1.62317858e+03
1363, -8.35000000e+02, 1.62317858e+03, -8.29386683e+01
1364, 1.62317858e+03, -8.29386683e+01, -8.35000000e+02
1365, -8.29386683e+01, -8.35000000e+02, 1.62312507e+03
1366, -8.35000000e+02, 1.62312507e+03, -8.34385561e+01
1367, 1.62312507e+03, -8.34385561e+01, -8.35000000e+02
1368, -8.34385561e+01, -8.35000000e+02, 1.62307156e+03
1369, -8.35000000e+02, 1.62307156e+03, -8.39384439e+01
1370, 1.62307156e+03, -8.39384439e+01, -8.35000000e+02
1371, -8.39384439e+01, -8.35000000e+02, 1.62301044e+03
1372, -8.35000000e+02, 1.62301044e+03, -8.44374586e+01
1373, 1.62301044e+03, -8.44374586e+01, -8.35000000e+02
1374, -8.44374586e+01, -8.35000000e+02, 1.62294932e+03
1375, -8.35000000e+02, 1.62294932e+03, -8.49364732e+01
1376, 1.62294932e+03, -8.49364732e+01, -8.35000000e+02
1377, -8.49364732e+01, -8.35000000e+02, 1.62288061e+03
1378, -8.35000000e+02, 1.62288061e+03, -8.54344989e+01
1379, 1.62288061e+03, -8.54344989e+01, -8.35000000e+02
1380, -8.54344989e+01, -8.35000000e+02, 1.62281189e+03
1381, -8.35000000e+02, 1.62281189e+03, -8.59325245e+01
1382, 1.62281189e+03, -8.59325245e+01, -8.35000000e+02
1383, -8.59325245e+01, -8.35000000e+02, 1.62273560e+03
1384, -8.35000000e+02, 1.62273560e+03, -8.64294456e+01
1385, 1.62273560e+03, -8.64294456e+01, -8.35000000e+02
1386, -8.64294456e+01, -8.35000000e+02, 1.62265930e+03
1387, -8.35000000e+02, 1.62265930e+03, -8.69263666e+01
1388, 1.62265930e+03, -8.69263666e+01, -8.35000000e+02
1389, -8.69263666e+01, -8.35000000e+02, 1.62257545e+03
1390, -8.35000000e+02, 1.62257545e+03, -8.74220678e+01
1391, 1.62257545e+03, -8.74220678e+01, -8.35000000e+02
1392, -8.74220678e+01, -8.35000000e+02, 1.62249159e+03
1393, -8.35000000e+02, 1.62249159e+03, -8.79177689e+01
1394, 1.62249159e+03, -8.79177689e+01, -8.35000000e+02
1395, -8.79177689e+01, -8.35000000e+02, 1.62240020e+03
1396, -8.35000000e+02, 1.62240020e+03, -8.84121351e+01
1397, 1.62240020e+03, -8.84121351e+01, -8.35000000e+02
1398, -8.84121351e+01, -8.35000000e+02, 1.62230880e+03
1399, -8.35000000e+02, 1.62230880e+03, -8.89065013e+01
1400, 1.62230880e+03, -8.89065013e+01, -8.35000000e+02
1401, -8.89065013e+01, -8.35000000e+02, 1.62220988e+03
1402, -8.35000000e+02, 1.62220988e+03, -8.93994179e+01
1403, 1.62220988e+03, -8.93994179e+01, -8.35000000e+02
1404, -8.93994179e+01, -8.35000000e+02, 1.62211096e+03
1405, -8.35000000e+02, 1.62211096e+03, -8.98923344e+01
1406, 1.62211096e+03, -8.98923344e+01, -8.35000000e+02
1407, -8.98923344e+01, -8.35000000e+02, 1.62200455e+03
1408, -8.35000000e+02, 1.62200455e+03, -9.03836868e+01
1409, 1.62200455e+03, -9.03836868e+01, -8.35000000e+02
1410, -9.03836868e+01, -8.35000000e+02, 1.62189814e+03
1411, -8.35000000e+02, 1.62189814e+03, -9.08750393e+01
1412, 1.62189814e+03, -9.08750393e+01, -8.35000000e+02
1413, -9.08750393e+01, -8.35000000e+02, 1.62178425e+03
1414, -8.35000000e+02, 1.62178425e+03, -9.13647136e+01
1415, 1.62178425e+03, -9.13647136e+01, -8.35000000e+02
1416, -9.13647136e+01, -8.35000000e+02, 1.62167036e+03
1417, -8.35000000e+02, 1.62167036e+03, -9.18543879e+01
1418, 1.62167036e+03, -9.18543879e+01, -8.35000000e+02
1419, -9.18543879e+01, -8.35000000e+02, 1.62154903e+03
1420, -8.35000000e+02, 1.62154903e+03, -9.23422705e+01
1421, 1.62154903e+03, -9.23422705e+01, -8.35000000e+02
1422, -9.23422705e+01, -8.35000000e+02, 1.62142769e+03
1423, -8.35000000e+02, 1.62142769e+03, -9.28301530e+01
1424, 1.62142769e+03, -9.28301530e+01, -8.35000000e+02
1425, -9.28301530e+01, -8.35000000e+02, 1.62129894e+03
1426, -8.35000000e+02, 1.62129894e+03, -9.33161306e+01
1427, 1.62129894e+03, -9.33161306e+01, -8.35000000e+02
1428, -9.33161306e+01, -8.35000000e+02, 1.62117019e+03
1429, -8.35000000e+02, 1.62117019e+03, -9.38021082e+01
1430, 1.62117019e+03, -9.38021082e+01, -8.35000000e+02
1431, -9.38021082e+01, -8.35000000e+02, 1.62103405e+03
1432, -8.35000000e+02, 1.62103405e+03, -9.42860680e+01
1433, 1.62103405e+03, -9.42860680e+01, -8.35000000e+02
1434, -9.42860680e+01, -8.35000000e+02, 1.62089791e+03
1435, -8.35000000e+02, 1.62089791e+03, -9.47700278e+01
1436, 1.62089791e+03, -9.47700278e+01, -8.35000000e+02
1437, -9.47700278e+01, -8.35000000e+02, 1.62075441e+03
1438, -8.35000000e+02, 1.62075441e+03, -9.52518575e+01
1439, 1.62075441e+03, -9.52518575e+01, -8.35000000e+02
1440, -9.52518575e+01, -8.35000000e+02, 1.62061091e+03
1441, -8.35000000e+02, 1.62061091e+03, -9.57336872e+01
1442, 1.62061091e+03, -9.57336872e+01, -8.35000000e+02
1443, -9.57336872e+01, -8.35000000e+02, 1.62046009e+03
1444, -8.35000000e+02, 1.62046009e+03, -9.62132750e+01
1445, 1.62046009e+03, -9.62132750e+01, -8.35000000e+02
1446, -9.62132750e+01, -8.35000000e+02, 1.62030927e+03
1447, -8.35000000e+02, 1.62030927e+03, -9.66928628e+01
1448, 1.62030927e+03, -9.66928628e+01, -8.35000000e+02
1449, -9.66928628e+01, -8.35000000e+02, 1.62015116e+03
1450, -8.35000000e+02, 1.62015116e+03, -9.71700974e+01
1451, 1.62015116e+03, -9.71700974e+01, -8.35000000e+02
1452, -9.71700974e+01, -8.35000000e+02, 1.61999305e+03
1453, -8.35000000e+02, 1.61999305e+03, -9.76473320e+01
1454, 1.61999305e+03, -9.76473320e+01, -8.35000000e+02
1455, -9.76473320e+01, -8.35000000e+02, 1.61982769e+03
1456, -8.35000000e+02, 1.61982769e+03, -9.81221026e+01
1457, 1.61982769e+03, -9.81221026e+01, -8.35000000e+02
1458, -9.81221026e+01, -8.35000000e+02, 1.61966233e+03
1459, -8.35000000e+02, 1.61966233e+03, -9.85968732e+01
1460, 1.61966233e+03, -9.85968732e+01, -8.35000000e+02
1461, -9.85968732e+01, -8.35000000e+02, 1.61948976e+03
1462, -8.35000000e+02, 1.61948976e+03, -9.90690697e+01
1463, 1.61948976e+03, -9.90690697e+01, -8.35000000e+02
1464, -9.90690697e+01, -8.35000000e+02, 1.61931719e+03
1465, -8.35000000e+02, 1.61931719e+03, -9.95412661e+01
1466, 1.61931719e+03, -9.95412661e+01, -8.35000000e+02
1467, -9.95412661e+01, -8.35000000e+02, 1.61913744e+03
1468, -8.35000000e+02, 1.61913744e+03, -1.00010779e+02
1469, 1.61913744e+03, -1.00010779e+02, -8.35000000e+02
1470, -1.00010779e+02, -8.35000000e+02, 1.61895769e+03
1471, -8.35000000e+02, 1.61895769e+03, -1.00480291e+02
1472, 1.61895769e+03, -1.00480291e+02, -8.35000000e+02
1473, -1.00480291e+02, -8.35000000e+02, 1.61877081e+03
1474, -8.35000000e+02, 1.61877081e+03, -1.00947011e+02
1475, 1.61877081e+03, -1.00947011e+02, -8.35000000e+02
1476, -1.00947011e+02, -8.35000000e+02, 1.61858393e+03
1477, -8.35000000e+02, 1.61858393e+03, -1.01413731e+02
1478, 1.61858393e+03, -1.01413731e+02, -8.35000000e+02
1479, -1.01413731e+02, -8.35000000e+02, 1.61838997e+03
1480, -8.35000000e+02, 1.61838997e+03, -1.01877550e+02
1481, 1.61838997e+03, -1.01877550e+02, -8.35000000e+02
1482, -1.01877550e+02, -8.35000000e+02, 1.61819600e+03
1483, -8.35000000e+02, 1.61819600e+03, -1.02341369e+02
1484, 1.61819600e+03, -1.02341369e+02, -8.35000000e+02
1485, -1.02341369e+02, -8.35000000e+02, 1.61799499e+03
1486, -8.35000000e+02, 1.61799499e+03, -1.02802180e+02
1487, 1.61799499e+03, -1.02802180e+02, -8.35000000e+02
1488, -1.02802180e+02, -8.35000000e+02, 1.61779398e+03
1489, -8.35000000e+02, 1.61779398e+03, -1.03262990e+02
1490, 1.61779398e+03, -1.03262990e+02, -8.35000000e+02
1491, -1.03262990e+02, -8.35000000e+02, 1.61758597e+03
1492, -8.35000000e+02, 1.61758597e+03, -1.03720685e+02
1493, 1.61758597e+03, -1.03720685e+02, -8.35000000e+02
1494, -1.03720685e+02, -8.35000000e+02, 1.61737796e+03
1495, -8.35000000e+02, 1.61737796e+03, -1.04178379e+02
1496, 1.61737796e+03, -1.04178379e+02, -8.35000000e+02
1497, -1.04178379e+02, -8.35000000e+02, 1.61716301e+03
1498, -8.35000000e+02, 1.61716301e+03, -1.04632852e+02
1499, 1.61716301e+03, -1.04632852e+02, -8.35000000e+02
1500, -1.04632852e+02, -8.35000000e+02, 1.61694805e+03
1501, -8.35000000e+02, 1.61694805e+03, -1.05087325e+02
1502, 1.61694805e+03, -1.05087325e+02, -8.35000000e+02
1503, -1.05087325e+02, -8.35000000e+02, 1.61672620e+03
1504, -8.35000000e+02, 1.61672620e+03, -1.05538470e+02
1505, 1.61672620e+03, -1.05538470e+02, -8.35000000e+02
1506, -1.05538470e+02, -8.35000000e+02, 1.61650435e+03
1507, -8.35000000e+02, 1.61650435e+03, -1.05989616e+02
1508, 1.61650435e+03, -1.05989616e+02, -8.35000000e+02
1509, -1.05989616e+02, -8.35000000e+02, 1.61627564e+03
1510, -8.35000000e+02, 1.61627564e+03, -1.06437329e+02
1511, 1.61627564e+03, -1.06437329e+02, -8.35000000e+02
1512, -1.06437329e+02, -8.35000000e+02, 1.61604694e+03
1513, -8.35000000e+02, 1.61604694e+03, -1.06885043e+02
1514, 1.61604694e+03, -1.06885043e+02, -8.35000000e+02
1515, -1.06885043e+02, -8.35000000e+02, 1.61581145e+03
1516, -8.35000000e+02, 1.61581145e+03, -1.07329220e+02
1517, 1.61581145e+03, -1.07329220e+02, -8.35000000e+02
1518, -1.07329220e+02, -8.35000000e+02, 1.61557596e+03
1519, -8.35000000e+02, 1.61557596e+03, -1.07773398e+02
1520, 1.61557596e+03, -1.07773398e+02, -8.35000000e+02
1521, -1.07773398e+02, -8.35000000e+02, 1.61533372e+03
1522, -8.35000000e+02, 1.61533372e+03, -1.08213936e+02
1523, 1.61533372e+03, -1.08213936e+02, -8.35000000e+02
1524, -1.08213936e+02, -8.35000000e+02, 1.61509149e+03
1525, -8.35000000e+02, 1.61509149e+03, -1.08654475e+02
1526, 1.61509149e+03, -1.08654475e+02, -8.35000000e+02
1527, -1.08654475e+02, -8.35000000e+02, 1.61484257e+03
1528, -8.35000000e+02, 1.61484257e+03, -1.09091272e+02
1529, 1.61484257e+03, -1.09091272e+02, -8.35000000e+02
1530, -1.09091272e+02, -8.35000000e+02, 1.61459366e+03
1531, -8.35000000e+02, 1.61459366e+03, -1.09528070e+02
1532, 1.61459366e+03, -1.09528070e+02, -8.35000000e+02
1533, -1.09528070e+02, -8.35000000e+02, 1.61433811e+03
1534, -8.35000000e+02, 1.61433811e+03, -1.09961024e+02
1535, 1.61433811e+03, -1.09961024e+02, -8.35000000e+02
1536, -1.09961024e+02, -8.35000000e+02, 1.61408257e+03
1537, -8.35000000e+02, 1.61408257e+03, -1.10393979e+02
1538, 1.61408257e+03, -1.10393979e+02, -8.35000000e+02
1539, -1.10393979e+02, -8.35000000e+02, 1.61382046e+03
1540, -8.35000000e+02, 1.61382046e+03, -1.10822990e+02
1541, 1.61382046e+03, -1.10822990e+02, -8.35000000e+02
1542, -1.10822990e+02, -8.35000000e+02, 1.61355836e+03
1543, -8.35000000e+02, 1.61355836e+03, -1.11252002e+02
1544, 1.61355836e+03, -1.11252002e+02, -8.35000000e+02
1545, -1.11252002e+02, -8.35000000e+02, 1.61328974e+03
1546, -8.35000000e+02, 1.61328974e+03, -1.11676971e+02
1547, 1.61328974e+03, -1.11676971e+02, -8.35000000e+02
1548, -1.11676971e+02, -8.35000000e+02, 1.61302113e+03
1549, -8.35000000e+02, 1.61302113e+03, -1.12101940e+02
1550, 1.61302113e+03, -1.12101940e+02, -8.35000000e+02
1551, -1.12101940e+02, -8.35000000e+02, 1.61274608e+03
1552, -8.35000000e+02, 1.61274608e+03, -1.12522767e+02
1553, 1.61274608e+03, -1.12522767e+02, -8.35000000e+02
1554, -1.12522767e+02, -8.35000000e+02, 1.61247102e+03
1555, -8.35000000e+02, 1.61247102e+03, -1.12943595e+02
1556, 1.61247102e+03, -1.12943595e+02, -8.35000000e+02
1557, -1.12943595e+02, -8.35000000e+02, 1.61218959e+03
1558, -8.35000000e+02, 1.61218959e+03, -1.13360183e+02
1559, 1.61218959e+03, -1.13360183e+02, -8.35000000e+02
1560, -1.13360183e+02, -8.35000000e+02, 1.61190815e+03
1561, -8.35000000e+02, 1.61190815e+03, -1.13776772e+02
1562, 1.61190815e+03, -1.13776772e+02, -8.35000000e+02
1563, -1.13776772e+02, -8.35000000e+02, 1.61162040e+03
1564, -8.35000000e+02, 1.61162040e+03, -1.14189025e+02
1565, 1.61162040e+03, -1.14189025e+02, -8.35000000e+02
1566, -1.14189025e+02, -8.35000000e+02, 1.61133266e+03
1567, -8.35000000e+02, 1.61133266e+03, -1.14601278e+02
1568, 1.61133266e+03, -1.14601278e+02, -8.35000000e+02
1569, -1.14601278e+02, -8.35000000e+02, 1.61103866e+03
1570, -8.35000000e+02, 1.61103866e+03, -1.15009100e+02
1571, 1.61103866e+03, -1.15009100e+02, -8.35000000e+02
1572, -1.15009100e+02, -8.35000000e+02, 1.61074467e+03
1573, -8.35000000e+02, 1.61074467e+03, -1.15416921e+02
1574, 1.61074467e+03, -1.15416921e+02, -8.35000000e+02
1575, -1.15416921e+02, -8.35000000e+02, 1.61044449e+03
1576, -8.35000000e+02, 1.61044449e+03, -1.15820217e+02
1577, 1.61044449e+03, -1.15820217e+02, -8.35000000e+02
1578, -1.15820217e+02, -8.35000000e+02, 1.61014432e+03
1579, -8.35000000e+02, 1.61014432e+03, -1.16223513e+02
1580, 1.61014432e+03, -1.16223513e+02, -8.35000000e+02
1581, -1.16223513e+02, -8.35000000e+02, 1.60983804e+03
1582, -8.35000000e+02, 1.60983804e+03, -1.16622189e+02
1583, 1.60983804e+03, -1.16622189e+02, -8.35000000e+02
1584, -1.16622189e+02, -8.35000000e+02, 1.60953176e+03
1585, -8.35000000e+02, 1.60953176e+03, -1.17020865e+02
1586, 1.60953176e+03, -1.17020865e+02, -8.35000000e+02
1587, -1.17020865e+02, -8.35000000e+02, 1.60921944e+03
1588, -8.35000000e+02, 1.60921944e+03, -1.17414829e+02
1589, 1.60921944e+03, -1.17414829e+02, -8.35000000e+02
1590, -1.17414829e+02, -8.35000000e+02, 1.60890712e+03
1591, -8.35000000e+02, 1.60890712e+03, -1.17808793e+02
1592, 1.60890712e+03, -1.17808793e+02, -8.35000000e+02
1593, -1.17808793e+02, -8.35000000e+02, 1.60858883e+03
1594, -8.35000000e+02, 1.60858883e+03, -1.18197953e+02
1595, 1.60858883e+03, -1.18197953e+02, -8.35000000e+02
1596, -1.18197953e+02, -8.35000000e+02, 1.60827055e+03
1597, -8.35000000e+02, 1.60827055e+03, -1.18587114e+02
1598, 1.60827055e+03, -1.18587114e+02, -8.35000000e+02
1599, -1.18587114e+02, -8.35000000e+02, 1.60794637e+03
1600, -8.35000000e+02, 1.60794637e+03, -1.18971381e+02
1601, 1.60794637e+03, -1.18971381e+02, -8.35000000e+02
1602, -1.18971381e+02, -8.35000000e+02, 1.60762219e+03
1603, -8.35000000e+02, 1.60762219e+03, -1.19355647e+02
1604, 1.60762219e+03, -1.19355647e+02, -8.35000000e+02
1605, -1.19355647e+02, -8.35000000e+02, 1.60729220e+03
1606, -8.35000000e+02, 1.60729220e+03, -1.19734931e+02
1607, 1.60729220e+03, -1.19734931e+02, -8.35000000e+02
1608, -1.19734931e+02, -8.35000000e+02, 1.60696221e+03
1609, -8.35000000e+02, 1.60696221e+03, -1.20114214e+02
1610, 1.60696221e+03, -1.20114214e+02, -8.35000000e+02
1611, -1.20114214e+02, -8.35000000e+02, 1.60662648e+03
1612, -8.35000000e+02, 1.60662648e+03, -1.20488427e+02
1613, 1.60662648e+03, -1.20488427e+02, -8.35000000e+02
1614, -1.20488427e+02, -8.35000000e+02, 1.60629074e+03
1615, -8.35000000e+02, 1.60629074e+03, -1.20862640e+02
1616, 1.60629074e+03, -1.20862640e+02, -8.35000000e+02
1617, -1.20862640e+02, -8.35000000e+02, 1.60594935e+03
1618, -8.35000000e+02, 1.60594935e+03, -1.21231694e+02
1619, 1.60594935e+03, -1.21231694e+02, -8.35000000e+02
1620, -1.21231694e+02, -8.35000000e+02, 1.59985289e+03
1621, -8.35000000e+02, 1.59985289e+03, -1.27822101e+02
1622, 1.59985289e+03, -1.27822101e+02, -8.35000000e+02
1623, -1.27822101e+02, -8.35000000e+02, 1.59375643e+03
1624, -8.35000000e+02, 1.59375643e+03, -1.34412508e+02
1625, 1.59375643e+03, -1.34412508e+02, -8.35000000e+02
1626, 1.00000000e+00, 9.99970989e-01, 1.00000000e+00
1627, 9.99970989e-01, 1.00000000e+00, 9.99970989e-01
1628, 1.00000000e+00, 9.99970989e-01, 1.00000000e+00
1629, 9.99970989e-01, 1.00000000e+00, 9.99970990e-01
1630, 1.00000000e+00, 9.99970990e-01, 1.00000000e+00
1631, 9.99970990e-01, 1.00000000e+00, 9.99970990e-01
1632, 1.00000000e+00, 9.99970990e-01, 1.00000000e+00
1633, 9.99970990e-01, 1.00000000e+00, 9.99970989e-01
1634, 1.00000000e+00, 9.99970989e-01, 1.00000000e+00
1635, 9.99970989e-01, 1.00000000e+00, 9.99970990e-01
1636, 1.00000000e+00, 9.99970990e-01, 1.00000000e+00
1637, 9.99970990e-01, 1.00000000e+00, 9.99970989e-01
1638, 1.00000000e+00, 9.99970989e-01, 1.00000000e+00
1639, 9.99970989e-01, 1.00000000e+00, 9.99970989e-01
1640, 1.00000000e+00, 9.99970989e-01, 1.00000000e+00
1641, 9.99970989e-01, 1.00000000e+00, 9.99970989e-01
1642, 1.00000000e+00, 9.99970989e-01, 1.00000000e+00
1643, 9.99970989e-01, 1.00000000e+00, 9.99970989e-01
1644, 1.00000000e+00, 9.99970989e-01, 1.00000000e+00
1645, 9.99970989e-01, 1.00000000e+00, 9.99970989e-01
1646, 1.00000000e+00, 9.99970989e-01, 1.00000000e+00
1647, 9.99970989e-01, 1.00000000e+00, 9.99970989e-01
1648, 1.00000000e+00, 9.99970989e-01, 1.00000000e+00
1649, 9.99970989e-01, 1.00000000e+00, 9.99970989e-01
1650, 1.00000000e+00, 9.99970989e-01, 1.00000000e+00
1651, 9.99970989e-01, 1.00000000e+00, 9.99970989e-01
1652, 1.00000000e+00, 9.99970989e-01, 1.00000000e+00
1653, 9.99970989e-01, 1.00000000e+00, 9.99970989e-01
1654, 1.00000000e+00, 9.99970989e-01, 1.00000000e+00
1655, 9.99970989e-01, 1.00000000e+00, 9.99970989e-01
1656, 1.00000000e+00, 9.99970989e-01, 1.00000000e+00
1657, 9.99970989e-01, 1.00000000e+00, 9.99970989e-01
1658, 1.00000000e+00, 9.99970989e-01, 1.00000000e+00
1659, 9.99970989e-01, 1.00000000e+00, 9.99970989e-01
1660, 1.00000000e+00, 9.99970989e-01, 1.00000000e+00
1661, 9.99970989e-01, 1.00000000e+00, 9.99970990e-01
1662, 1.00000000e+00, 9.99970990e-01, 1.00000000e+00
1663, 9.99970990e-01, 1.00000000e+00, 9.99970990e-01
1664, 1.00000000e+00, 9.99970990e-01, 1.00000000e+00
1665, 9.99970990e-01, 1.00000000e+00, 9.99970989e-01
1666, 1.00000000e+00, 9.99970989e-01, 1.00000000e+00
1667, 9.99970989e-01, 1.00000000e+00, 9.99970989e-01
1668, 1.00000000e+00, 9.99970989e-01, 1.00000000e+00
1669, 9.99970989e-01, 1.00000000e+00, 9.99970989e-01
1670, 1.00000000e+00, 9.99970989e-01, 1.00000000e+00
1671, 9.99970989e-01, 1.00000000e+00, 9.99970990e-01
1672, 1.00000000e+00, 9.99970990e-01, 1.00000000e+00
1673, 9.99970990e-01, 1.00000000e+00, 9.99970989e-01
1674, 1.00000000e+00, 9.99970989e-01, 1.00000000e+00
1675, 9.99970989e-01, 1.00000000e+00, 9.99970989e-01
1676, 1.00000000e+00, 9.99970989e-01, 1.00000000e+00
1677, 9.99970989e-01, 1.00000000e+00, 9.99970989e-01
1678, 1.00000000e+00, 9.99970989e-01, 1.00000000e+00
1679, 9.99970989e-01, 1.00000000e+00, 9.99970990e-01
1680, 1.00000000e+00, 9.99970990e-01, 1.00000000e+00
1681, 9.99970990e-01, 1.00000000e+00, 9.99970989e-01
1682, 1.00000000e+00, 9.99970989e-01, 1.00000000e+00
1683, 9.99970989e-01, 1.00000000e+00, 9.99970989e-01
1684, 1.00000000e+00, 9.99970989e-01, 1.00000000e+00
1685, 9.99970989e-01, 1.00000000e+00, 9.99970989e-01
1686, 1.00000000e+00, 9.99970989e-01, 1.00000000e+00
1687, 9.99970989e-01, 1.00000000e+00, 9.99970989e-01
1688, 1.00000000e+00, 9.99970989e-01, 1.00000000e+00
1689, 9.99970989e-01, 1.00000000e+00, 9.99970989e-01
1690, 1.00000000e+00, 9.99970989e-01, 1.00000000e+00
1691, 9.99970989e-01, 1.00000000e+00, 9.99970989e-01
1692, 1.00000000e+00, 9.99970989e-01, 1.00000000e+00
1693, 9.99970989e-01, 1.00000000e+00, 9.99970989e-01
1694, 1.00000000e+00, 9.99970989e-01, 1.00000000e+00
1695, 9.99970989e-01, 1.00000000e+00, 9.99970989e-01
1696, 1.00000000e+00, 9.99970989e-01, 1.00000000e+00
1697, 9.99970989e-01, 1.00000000e+00, 9.99970990e-01
1698, 1.00000000e+00, 9.99970990e-01, 1.00000000e+00
1699, 9.99970990e-01, 1.00000000e+00, 9.99970989e-01
1700, 1.00000000e+00, 9.99970989e-01, 1.00000000e+00
1701, 9.99970989e-01, 1.00000000e+00, 9.99970989e-01
1702, 1.00000000e+00, 9.99970989e-01, 1.00000000e+00
1703, 9.99970989e-01, 1.00000000e+00, 9.99970989e-01
1704, 1.00000000e+00, 9.99970989e-01, 1.00000000e+00
1705, 9.99970989e-01, 1.00000000e+00, 9.99970989e-01
1706, 1.00000000e+00, 9.99970989e-01, 1.00000000e+00
1707, 9.99970989e-01, 1.00000000e+00, 9.99970989e-01
1708, 1.00000000e+00, 9.99970989e-01, 1.00000000e+00
1709, 9.99970989e-01, 1.00000000e+00, 9.99970989e-01
1710, 1.00000000e+00, 9.99970989e-01, 1.00000000e+00
1711, 9.99970989e-01, 1.00000000e+00, 9.99970989e-01
1712, 1.00000000e+00, 9.99970989e-01, 1.00000000e+00
1713, 9.99970989e-01, 1.00000000e+00, 9.99970989e-01
1714, 1.00000000e+00, 9.99970989e-01, 1.00000000e+00
1715, 9.99970989e-01, 1.00000000e+00, 9.99970989e-01
1716, 1.00000000e+00, 9.99970989e-01, 1.00000000e+00
1717, 9.99970989e-01, 1.00000000e+00, 9.99970989e-01
1718, 1.00000000e+00, 9.99970989e-01, 1.00000000e+00
1719, 9.99970989e-01, 1.00000000e+00, 9.99970989e-01
1720, 1.00000000e+00, 9.99970989e-01, 1.00000000e+00
1721, 9.99970989e-01, 1.00000000e+00, 9.99970989e-01
1722, 1.00000000e+00, 9.99970989e-01, 1.00000000e+00
1723, 9.99970989e-01, 1.00000000e+00, 1.00000000e+00
1724, 1.00000000e+00, 1.00000000e+00, 9.99970989e-01
1725, 1.00000000e+00, 9.99970989e-01, 1.00000000e+00
1726, 9.99970989e-01, 1.00000000e+00, 9.99970989e-01
1727, 1.00000000e+00, 9.99970989e-01, 1.00000000e+00
1728, 9.99970989e-01, 1.00000000e+00, 9.99970990e-01
1729, 1.00000000e+00, 9.99970990e-01, 1.00000000e+00
1730, 9.99970990e-01, 1.00000000e+00, 9.99970990e-01
1731, 1.00000000e+00, 9.99970990e-01, 1.00000000e+00
1732, 9.99970990e-01, 1.00000000e+00, 9.99970989e-01
1733, 1.00000000e+00, 9.99970989e-01, 1.00000000e+00
1734, 9.99970989e-01, 1.00000000e+00, 9.99970990e-01
1735, 1.00000000e+00, 9.99970990e-01, 1.00000000e+00
1736, 9.99970990e-01, 1.00000000e+00, 9.99970989e-01
1737, 1.00000000e+00, 9.99970989e-01, 1.00000000e+00
1738, 9.99970989e-01, 1.00000000e+00, 9.99970989e-01
1739, 1.00000000e+00, 9.99970989e-01, 1.00000000e+00
1740, 9.99970989e-01, 1.00000000e+00, 9.99970989e-01
1741, 1.00000000e+00, 9.99970989e-01, 1.00000000e+00
1742, 9.99970989e-01, 1.00000000e+00, 9.99970989e-01
1743, 1.00000000e+00, 9.99970989e-01, 1.00000000e+00
1744, 9.99970989e-01, 1.00000000e+00, 9.99970989e-01
1745, 1.00000000e+00, 9.99970989e-01, 1.00000000e+00
1746, 9.99970989e-01, 1.00000000e+00, 9.99970989e-01
1747, 1.00000000e+00, 9.99970989e-01, 1.00000000e+00
1748, 9.99970989e-01, 1.00000000e+00, 9.99970989e-01
1749, 1.00000000e+00, 9.99970989e-01, 1.00000000e+00
1750, 9.99970989e-01, 1.00000000e+00, 9.99970989e-01
1751, 1.00000000e+00, 9.99970989e-01, 1.00000000e+00
1752, 9.99970989e-01, 1.00000000e+00, 9.99970989e-01
1753, 1.00000000e+00, 9.99970989e-01, 1.00000000e+00
1754, 9.99970989e-01, 1.00000000e+00, 9.99970989e-01
1755, 1.00000000e+00, 9.99970989e-01, 1.00000000e+00
1756, 9.99970989e-01, 1.00000000e+00, 9.99970989e-01
1757, 1.00000000e+00, 9.99970989e-01, 1.00000000e+00
1758, 9.99970989e-01, 1.00000000e+00, 9.99970989e-01
1759, 1.00000000e+00, 9.99970989e-01, 1.00000000e+00
1760, 9.99970989e-01, 1.00000000e+00, 9.99970990e-01
1761, 1.00000000e+00, 9.99970990e-01, 1.00000000e+00
1762, 9.99970990e-01, 1.00000000e+00, 9.99970990e-01
1763, 1.00000000e+00, 9.99970990e-01, 1.00000000e+00
1764, 9.99970990e-01, 1.00000000e+00, 9.99970989e-01
1765, 1.00000000e+00, 9.99970989e-01, 1.00000000e+00
1766, 9.99970989e-01, 1.00000000e+00, 9.99970989e-01
1767, 1.00000000e+00, 9.99970989e-01, 1.00000000e+00
1768, 9.99970989e-01, 1.00000000e+00, 9.99970989e-01
1769, 1.00000000e+00, 9.99970989e-01, 1.00000000e+00
1770, 9.99970989e-01, 1.00000000e+00, 9.99970990e-01
1771, 1.00000000e+00, 9.99970990e-01, 1.00000000e+00
1772, 9.99970990e-01, 1.00000000e+00, 9.99970989e-01
1773, 1.00000000e+00, 9.99970989e-01, 1.00000000e+00
1774, 9.99970989e-01, 1.00000000e+00, 9.99970989e-01
1775, 1.00000000e+00, 9.99970989e-01, 1.00000000e+00
1776, 9.99970989e-01, 1.00000000e+00, 9.99970989e-01
1777, 1.00000000e+00, 9.99970989e-01, 1.00000000e+00
1778, 9.99970989e-01, 1.00000000e+00, 9.99970990e-01
1779, 1.00000000e+00, 9.99970990e-01, 1.00000000e+00
1780, 9.99970990e-01, 1.00000000e+00, 9.99970989e-01
1781, 1.00000000e+00, 9.99970989e-01, 1.00000000e+00
1782, 9.99970989e-01, 1.00000000e+00, 9.99970989e-01
1783, 1.00000000e+00, 9.99970989e-01, 1.00000000e+00
1784, 9.99970989e-01, 1.00000000e+00, 9.99970989e-01
1785, 1.00000000e+00, 9.99970989e-01, 1.00000000e+00
1786, 9.99970989e-01, 1.00000000e+00, 9.99970989e-01
1787, 1.00000000e+00, 9.99970989e-01, 1.00000000e+00
1788, 9.99970989e-01, 1.00000000e+00, 9.99970989e-01
1789, 1.00000000e+00, 9.99970989e-01, 1.00000000e+00
1790, 9.99970989e-01, 1.00000000e+00, 9.99970989e-01
1791, 1.00000000e+00, 9.99970989e-01, 1.00000000e+00
1792, 9.99970989e-01, 1.00000000e+00, 9.99970989e-01
1793, 1.00000000e+00, 9.99970989e-01, 1.00000000e+00
1794, 9.99970989e-01, 1.00000000e+00, 9.99970989e-01
1795, 1.00000000e+00, 9.99970989e-01, 1.00000000e+00
1796, 9.99970989e-01, 1.00000000e+00, 9.99970990e-01
1797, 1.00000000e+00, 9.99970990e-01, 1.00000000e+00
1798, 9.99970990e-01, 1.00000000e+00, 9.99970989e-01
1799, 1.00000000e+00, 9.99970989e-01, 1.00000000e+00
1800, 9.99970989e-01, 1.00000000e+00, 9.99970989e-01
1801, 1.00000000e+00, 9.99970989e-01, 1.00000000e+00
1802, 9.99970989e-01, 1.00000000e+00, 9.99970989e-01
1803, 1.00000000e+00, 9.99970989e-01, 1.00000000e+00
1804, 9.99970989e-01, 1.00000000e+00, 9.99970989e-01
1805, 1.00000000e+00, 9.99970989e-01, 1.00000000e+00
1806, 9.99970989e-01, 1.00000000e+00, 9.99970989e-01
1807, 1.00000000e+00, 9.99970989e-01, 1.00000000e+00
1808, 9.99970989e-01, 1.00000000e+00, 9.99970989e-01
1809, 1.00000000e+00, 9.99970989e-01, 1.00000000e+00
1810, 9.99970989e-01, 1.00000000e+00, 9.99970989e-01
1811, 1.00000000e+00, 9.99970989e-01, 1.00000000e+00
1812, 9.99970989e-01, 1.00000000e+00, 9.99970989e-01
1813, 1.00000000e+00, 9.99970989e-01, 1.00000000e+00
1814, 9.99970989e-01, 1.00000000e+00, 9.99970989e-01
1815, 1.00000000e+00, 9.99970989e-01, 1.00000000e+00
1816, 9.99970989e-01, 1.00000000e+00, 9.99970989e-01
1817, 1.00000000e+00, 9.99970989e-01, 1.00000000e+00
1818, 9.99970989e-01, 1.00000000e+00, 9.99970989e-01
1819, 1.00000000e+00, 9.99970989e-01, 1.00000000e+00
1820, 9.99970989e-01, 1.00000000e+00, 9.99970989e-01
1821, 1.00000000e+00, 9.99970989e-01, 1.00000000e+00
1822, 9.99970989e-01, 1.00000000e+00, 1.00000000e+00
1823, 1.59375338e+03, -1.34415561e+02, -8.95003053e+02
1824, -1.34415561e+02, -8.95003053e+02, 1.59375949e+03
1825, -8.95003053e+02, 1.59375949e+03, -1.34409455e+02
1826, 1.59375949e+03, -1.34409455e+02, -8.34996947e+02
1827, -1.34409455e+02, -8.34996947e+02, 2.06305885e+00
1828, 1.59375643e+03, -1.34412508e+02, -8.95000000e+02
1829, -1.34412508e+02, -8.95000000e+02, 2.06305885e+00
1830, 3.32890600e+00, 8.66312480e+00, 1.39973436e+01
1831, 8.66312480e+00, 1.39973436e+01, 1.93315624e+01
1832, 1.39973436e+01, 1.93315624e+01, 2.46657812e+01
1833, 1.93315624e+01, 2.46657812e+01, 3.00000000e+01
1834, 2.46657812e+01, 3.00000000e+01, 3.53342188e+01
1835, 3.00000000e+01, 3.53342188e+01, 4.06684376e+01
1836, 3.53342188e+01, 4.06684376e+01, 4.60026564e+01
1837, 4.06684376e+01, 4.60026564e+01, 5.13368752e+01
1838, 4.60026564e+01, 5.13368752e+01, 5.66710940e+01
1839, 5.13368752e+01, 5.66710940e+01, 6.00000000e+01
1840, 5.00000000e+00, 5.00000000e+00, 5.88644760e+01
1841, 5.00000000e+00, 5.88644760e+01, 5.88644760e+01
1842, 2.49540929e-01, 3.32721063e-01, 4.15901198e-01
1843, 3.32721063e-01, 4.15901198e-01, 4.99081332e-01
1844, 4.15901198e-01, 4.99081332e-01, 5.82261625e-01
1845, 4.99081332e-01, 5.82261625e-01, 6.65441917e-01
1846, 5.82261625e-01, 6.65441917e-01, 7.48622210e-01
1847, 6.65441917e-01, 7.48622210e-01, 1.00000000e+00
1848, 1.62348460e+03, -7.64290128e+01, -8.95015401e+02
1849, -7.64290128e+01, -8.95015401e+02, 1.62351540e+03
1850, -8.95015401e+02, 1.62351540e+03, -7.63982112e+01
1851, 1.62351540e+03, -7.63982112e+01, -8.34984599e+02
1852, 1.59285704e+03, -1.35312733e+02, -9.00900090e+02
1853, -1.35312733e+02, -9.00900090e+02, 1.59465722e+03
1854, -9.00900090e+02, 1.59465722e+03, -1.33512552e+02
1855, 1.59465722e+03, -1.33512552e+02, -8.94099910e+02
1856, 1.59297183e+03, -1.35197937e+02, -9.00785294e+02
1857, -1.35197937e+02, -9.00785294e+02, 1.60673442e+03
1858, -9.00785294e+02, 1.60673442e+03, -1.20446645e+02
1859, 1.60673442e+03, -1.20446645e+02, -8.99214706e+02
1860, 1.67859274e+03, -1.64146333e+02, -9.06000000e+02
1861, -1.64146333e+02, -9.06000000e+02, -9.81627183e-01
1862, -9.06000000e+02, -9.81627183e-01, 1.90808995e-01
1863, 1.66428937e+03, -2.34597795e+02, -9.00755931e+02
1864, -2.34597795e+02, -9.00755931e+02, 1.66694609e+03
1865, -9.00755931e+02, 1.66694609e+03, -2.27196169e+02
1866, 1.66694609e+03, -2.27196169e+02, -8.99244069e+02
1867, 1.66619016e+03, -2.27952100e+02, -9.00000000e+02
1868, 1.67859274e+03, -1.64146333e+02, -9.06000000e+02
1869, -1.64146333e+02, -9.06000000e+02, 3.06305885e+00
1870, 2.15424751e+01, -3.07867449e+01, 3.55271211e+01
1871, -3.07867449e+01, 3.55271211e+01, 4.11580221e+01
1872, 1.66438221e+03, -2.36877411e+02, -9.06090666e+02
1873, -2.36877411e+02, -9.06090666e+02, 1.66456354e+03
1874, -9.06090666e+02, 1.66456354e+03, -2.36696079e+02
1875, 1.66456354e+03, -2.36696079e+02, -8.93909334e+02
1876, 1.66445748e+03, -2.36802146e+02, -8.94015401e+02
1877, -2.36802146e+02, -8.94015401e+02, 1.66506071e+03
1878, -8.94015401e+02, 1.66506071e+03, -2.33826463e+02
1879, 1.66506071e+03, -2.33826463e+02, -8.93984599e+02
1880, 5.50514730e-01, 1.10102946e+00, 1.65154419e+00
1881, 1.10102946e+00, 1.65154419e+00, 2.20205892e+00
1882, 1.65154419e+00, 2.20205892e+00, 2.75257365e+00
1883, 2.20205892e+00, 2.75257365e+00, 3.00000000e+00
1884, 1.49758086e+03, -2.04364616e+02, -9.00015401e+02
1885, -2.04364616e+02, -9.00015401e+02, 1.49818409e+03
1886, -9.00015401e+02, 1.49818409e+03, -2.01388933e+02
1887, 1.49818409e+03, -2.01388933e+02, -8.99984599e+02
1888, -2.01388933e+02, -8.99984599e+02, 3.06305885e+00
1889, 1.49759626e+03, -2.04349216e+02, -9.00000000e+02
1890, 1.49759626e+03, -2.04349216e+02, -9.00000000e+02
1891, 1.49816868e+03, -2.01404334e+02, -9.00000000e+02
1892, -2.01404334e+02, -9.00000000e+02, 3.06305885e+00
1893, 1.49816868e+03, -2.01404334e+02, -9.00000000e+02
1894, 1.49759626e+03, -2.04349216e+02, -9.06000000e+02
1895, -2.04349216e+02, -9.06000000e+02, 3.06305885e+00
1896, 1.49759626e+03, -2.04349216e+02, -9.06000000e+02
1897, 1.51170072e+03, -1.31724205e+02, -9.06015401e+02
1898, -1.31724205e+02, -9.06015401e+02, 1.51173152e+03
1899, -9.06015401e+02, 1.51173152e+03, -1.31693403e+02
1900, 1.51173152e+03, -1.31693403e+02, -8.99984599e+02
1901, -1.31693403e+02, -8.99984599e+02, 2.06305885e+00
1902, 7.15669150e-01, 1.43133830e+00, 2.14700745e+00
1903, 1.43133830e+00, 2.14700745e+00, 2.86267660e+00
1904, 2.14700745e+00, 2.86267660e+00, 3.57834575e+00
1905, 2.86267660e+00, 3.57834575e+00, 4.29401490e+00
1906, 3.57834575e+00, 4.29401490e+00, 5.00968405e+00
1907, 4.29401490e+00, 5.00968405e+00, 5.72535320e+00
1908, 5.00968405e+00, 5.72535320e+00, 6.00000000e+00
1909, 1.51114064e+03, -1.34656739e+02, -8.86003053e+02
1910, -1.34656739e+02, -8.86003053e+02, 1.51171918e+03
1911, -8.86003053e+02, 1.51171918e+03, -1.31705751e+02
1912, 1.51171918e+03, -1.31705751e+02, -8.85996947e+02
1913, 1.51170072e+03, -1.59582318e+02, -9.06015401e+02
1914, -1.59582318e+02, -9.06015401e+02, 1.65504909e+03
1915, -9.06015401e+02, 1.65504909e+03, -1.31693403e+02
1916, 1.65504909e+03, -1.31693403e+02, -9.05984599e+02
1917, 3.00598510e+00, 1.07830979e+01, 1.85602106e+01
1918, 1.07830979e+01, 1.85602106e+01, 2.63373234e+01
1919, 1.85602106e+01, 2.63373234e+01, 3.41144362e+01
1920, 2.63373234e+01, 3.41144362e+01, 4.18915489e+01
1921, 3.41144362e+01, 4.18915489e+01, 4.96686617e+01
1922, 4.18915489e+01, 4.96686617e+01, 5.74457745e+01
1923, 4.96686617e+01, 5.74457745e+01, 6.52228872e+01
1924, 5.74457745e+01, 6.52228872e+01, 7.30000000e+01
1925, 6.52228872e+01, 7.30000000e+01, 8.07771128e+01
1926, 7.30000000e+01, 8.07771128e+01, 8.85542255e+01
1927, 8.07771128e+01, 8.85542255e+01, 9.63313383e+01
1928, 8.85542255e+01, 9.63313383e+01, 1.04108451e+02
1929, 9.63313383e+01, 1.04108451e+02, 1.11885564e+02
1930, 1.04108451e+02, 1.11885564e+02, 1.19662677e+02
1931, 1.11885564e+02, 1.19662677e+02, 1.27439789e+02
1932, 1.19662677e+02, 1.27439789e+02, 1.35216902e+02
1933, 1.27439789e+02, 1.35216902e+02, 1.42994015e+02
1934, 1.35216902e+02, 1.42994015e+02, 1.46000000e+02
1935, 4.49445462e-02, 9.49445462e-02, 1.44944546e-01
1936, 9.49445462e-02, 1.44944546e-01, 1.94944546e-01
1937, 1.44944546e-01, 1.94944546e-01, 2.44944546e-01
1938, 1.94944546e-01, 2.44944546e-01, 2.94944546e-01
1939, 2.44944546e-01, 2.94944546e-01, 3.44944546e-01
1940, 2.94944546e-01, 3.44944546e-01, 3.94944546e-01
1941, 3.44944546e-01, 3.94944546e-01, 4.44944546e-01
1942, 3.94944546e-01, 4.44944546e-01, 4.94944546e-01
1943, 4.44944546e-01, 4.94944546e-01, 5.44944546e-01
1944, 1.65499959e+03, -1.59601024e+02, -9.00034106e+02
1945, -1.59601024e+02, -9.00034106e+02, 1.65506780e+03
1946, -9.00034106e+02, 1.65506780e+03, -1.59532811e+02
1947, 1.65506780e+03, -1.59532811e+02, -8.85965894e+02
1948, 1.51170072e+03, -1.59582318e+02, -8.86015401e+02
1949, -1.59582318e+02, -8.86015401e+02, 1.65504909e+03
1950, -8.86015401e+02, 1.65504909e+03, -1.31693403e+02
1951, 1.65504909e+03, -1.31693403e+02, -8.85984599e+02
1952, 1.55750000e+03, -8.45257159e+01, -5.93496000e+02
1953, -8.45257159e+01, -5.93496000e+02, -9.53754287e+00
1954, -5.93496000e+02, -9.53754287e+00, -4.90664045e+01
1955, -9.53754287e+00, -4.90664045e+01, -1.23419174e+00
1956, -4.90664045e+01, -1.23419174e+00, 4.90819241e+01
1957, -1.23419174e+00, 4.90819241e+01, -9.53452710e+00
1958, 4.90819241e+01, -9.53452710e+00, -2.39826715e-01
1959, 1.60705353e+03, 3.25535336e+01, -8.35446466e+02
1960, 3.25535336e+01, -8.35446466e+02, 1.60794647e+03
1961, -8.35446466e+02, 1.60794647e+03, 1.64321959e+02
1962, 1.60794647e+03, 1.64321959e+02, -7.83075840e+02
1963, 1.64321959e+02, -7.83075840e+02, 3.06305885e+00
1964, 1.60750000e+03, 1.63875493e+02, -7.83522306e+02
1965, 1.60750000e+03, 1.63875493e+02, -7.83522306e+02
1966, 1.63875493e+02, -7.83522306e+02, 3.06305885e+00
1967, 2.08811046e-02, 2.08811046e-02, 4.66714614e-01
1968, 2.08811046e-02, 4.66714614e-01, 4.66714614e-01
1969, 4.66714614e-01, 4.66714614e-01, 1.00000000e+00
1970, 4.66714614e-01, 1.00000000e+00, 1.00000000e+00
1971, 4.14654602e-01, 4.14654602e-01, 4.14654602e-01
1972, 4.14654602e-01, 4.14654602e-01, 4.14654602e-01
1973, -3.69875493e+02, -1.32477694e+02, -1.27548955e+02
1974, -3.69875493e+02, -1.32477694e+02, -1.27548955e+02
1975, -4.05123438e+01, -5.32426909e+01, 4.05123438e+01
1976, -5.32426909e+01, 4.05123438e+01, -5.28539303e+01
1977, 1.54797038e+03, -1.28875278e+02, -8.35003053e+02
1978, -1.28875278e+02, -8.35003053e+02, 1.60750305e+03
1979, -8.35003053e+02, 1.60750305e+03, -7.84359997e+01
1980, 1.60750305e+03, -7.84359997e+01, -8.34996947e+02
1981, 1.24974068e-01, 1.66629431e-01, 2.08284794e-01
1982, 1.66629431e-01, 2.08284794e-01, 2.49940157e-01
1983, 2.08284794e-01, 2.49940157e-01, 3.74894772e-01
1984, 2.49940157e-01, 3.74894772e-01, 4.16542128e-01
1985, 3.74894772e-01, 4.16542128e-01, 4.58189485e-01
1986, 4.16542128e-01, 4.58189485e-01, 4.99836841e-01
1987, 4.58189485e-01, 4.99836841e-01, 6.24772254e-01
1988, 4.99836841e-01, 6.24772254e-01, 6.66414145e-01
1989, 6.24772254e-01, 6.66414145e-01, 7.08056037e-01
1990, 6.66414145e-01, 7.08056037e-01, 7.49697928e-01
1991, 7.08056037e-01, 7.49697928e-01, 8.74615327e-01
1992, 7.49697928e-01, 8.74615327e-01, 1.00000000e+00
1993, 1.54796246e+03, -1.28467117e+02, -9.17257277e+02
1994, -1.28467117e+02, -9.17257277e+02, 1.60750000e+03
1995, -9.17257277e+02, 1.60750000e+03, -7.64136120e+01
1996, 1.60750000e+03, -7.64136120e+01, -8.33732526e+02
1997, 1.50132742e+03, -1.32745596e+02, -9.00000000e+02
1998, -1.32745596e+02, -9.00000000e+02, 2.06305885e+00
1999, 1.48441050e+03, -1.98748409e+02, -9.00015401e+02
2000, -1.98748409e+02, -9.00015401e+02, 1.49741632e+03
2001, -9.00015401e+02, 1.49741632e+03, -1.31966959e+02
2002, 1.49741632e+03, -1.31966959e+02, -8.99984599e+02
2003, 1.65446127e+03, -1.62511799e+02, -8.86000000e+02
2004, 1.65446127e+03, -1.62511799e+02, -8.86000000e+02
2005, 4.55387349e+01, 4.34882010e+01, 1.88856304e+02
2006, 4.34882010e+01, 1.88856304e+02, 7.13463143e+01
2007, 4.49663079e+01, 4.34882010e+01, 1.88856304e+02
2008, 4.34882010e+01, 1.88856304e+02, 7.42911959e+01
2009, 4.49663079e+01, 4.34882010e+01, 1.88856304e+02
2010, 4.34882010e+01, 1.88856304e+02, 7.42911959e+01
2011, 1.66447288e+03, -2.36786745e+02, -8.86000000e+02
2012, 1.66447288e+03, -2.36786745e+02, -8.86000000e+02
2013, -2.36786745e+02, -8.86000000e+02, 3.06305885e+00
2014, 2.00000000e+01, 1.70000000e+02, 2.00000000e+01
2015, 1.66445748e+03, -2.36802146e+02, -8.94015401e+02
2016, -2.36802146e+02, -8.94015401e+02, 1.66448828e+03
2017, -8.94015401e+02, 1.66448828e+03, -2.36771344e+02
2018, 1.66448828e+03, -2.36771344e+02, -8.90984599e+02
2019, 2.48970539e-01, 1.50000000e+00, 2.75102946e+00
2020, 1.50000000e+00, 2.75102946e+00, 2.99966667e+00
2021, 2.75102946e+00, 2.99966667e+00, 3.00000000e+00
2022, 7.57050776e+00, 1.76044250e+01, 2.76383423e+01
2023, 1.76044250e+01, 2.76383423e+01, 3.76722595e+01
2024, 2.76383423e+01, 3.76722595e+01, 4.77061768e+01
2025, 3.76722595e+01, 4.77061768e+01, 5.77400940e+01
2026, 4.77061768e+01, 5.77400940e+01, 6.77740113e+01
2027, 5.77400940e+01, 6.77740113e+01, 7.78079286e+01
2028, 6.77740113e+01, 7.78079286e+01, 8.78418458e+01
2029, 7.78079286e+01, 8.78418458e+01, 9.78757631e+01
2030, 8.78418458e+01, 9.78757631e+01, 1.07909680e+02
2031, 9.78757631e+01, 1.07909680e+02, 1.17943598e+02
2032, 1.07909680e+02, 1.17943598e+02, 1.27977515e+02
2033, 1.17943598e+02, 1.27977515e+02, 1.38011432e+02
2034, 1.27977515e+02, 1.38011432e+02, 1.48045349e+02
2035, 1.38011432e+02, 1.48045349e+02, 1.58079267e+02
2036, 1.48045349e+02, 1.58079267e+02, 1.68113184e+02
2037, 1.58079267e+02, 1.68113184e+02, 1.70000000e+02
2038, 1.49749559e+03, -2.04449882e+02, -9.00100666e+02
2039, -2.04449882e+02, -9.00100666e+02, 1.49769692e+03
2040, -9.00100666e+02, 1.49769692e+03, -2.04248550e+02
2041, 1.49769692e+03, -2.04248550e+02, -8.90899334e+02
2042, 1.70000000e+02, 6.00000000e+00, 1.70000000e+02
2043, 6.00000000e+00, 1.70000000e+02, 1.50000000e+01
2044, 1.65485597e+03, -1.64324052e+02, -9.06177719e+02
2045, -1.64324052e+02, -9.06177719e+02, 1.67877046e+03
2046, -9.06177719e+02, 1.67877046e+03, -1.59389198e+02
2047, 1.67877046e+03, -1.59389198e+02, -9.05822281e+02
2048, 1.64740168e+03, -7.26373420e+01, -9.16098318e+02
2049, -7.26373420e+01, -9.16098318e+02, 1.64759832e+03
2050, -9.16098318e+02, 1.64759832e+03, -7.24407056e+01
2051, 1.64759832e+03, -7.24407056e+01, -8.99901682e+02
2052, 1.69591586e+03, -1.29123166e+02, -9.04084142e+02
2053, -1.29123166e+02, -9.04084142e+02, 1.75658414e+03
2054, -9.04084142e+02, 1.75658414e+03, -6.84548816e+01
2055, 1.75658414e+03, -6.84548816e+01, -8.95915858e+02
2056, 1.70000000e+03, -1.25039024e+02, -9.00000000e+02
2057, 1.70000000e+03, -1.25039024e+02, -9.00000000e+02
2058, -1.25039024e+02, -9.00000000e+02, 2.06305885e+00
2059, 1.70000000e+03, -1.25039024e+02, -9.00000000e+02
2060, 6.25000000e-02, 1.25000000e-01, 1.87500000e-01
2061, 1.25000000e-01, 1.87500000e-01, 2.50000000e-01
2062, 1.87500000e-01, 2.50000000e-01, 3.12500000e-01
2063, 2.50000000e-01, 3.12500000e-01, 3.75000000e-01
2064, 3.12500000e-01, 3.75000000e-01, 4.37500000e-01
2065, 3.75000000e-01, 4.37500000e-01, 4.99951929e-01
2066, 4.37500000e-01, 4.99951929e-01, 4.99951929e-01
2067, 1.51418149e+03, -1.20107906e+02, -9.16015401e+02
2068, -1.20107906e+02, -9.16015401e+02, 1.52010180e+03
2069, -9.16015401e+02, 1.52010180e+03, -1.18932298e+02
2070, 1.52010180e+03, -1.18932298e+02, -9.15984599e+02
2071, -1.18932298e+02, -9.15984599e+02, 3.06305885e+00
2072, 1.52008640e+03, -1.20092505e+02, -9.16000000e+02
2073, -1.20092505e+02, -9.16000000e+02, 3.06305885e+00
2074, 1.51419689e+03, -1.18947699e+02, -9.16000000e+02
2075, 1.51419689e+03, -1.18947699e+02, -9.16000000e+02
2076, -1.18947699e+02, -9.16000000e+02, 3.06305885e+00
2077, 1.51419689e+03, -1.18947699e+02, -9.16000000e+02
2078, 1.50100550e+03, -2.18255223e+02, -9.16000000e+02
2079, -2.18255223e+02, -9.16000000e+02, 3.06305885e+00
2080, 1.50100550e+03, -2.18255223e+02, -9.16000000e+02
2081, 1.50100550e+03, -2.18255223e+02, -9.16000000e+02
2082, 1.49510085e+03, -2.17125868e+02, -9.16015401e+02
2083, -2.17125868e+02, -9.16015401e+02, 1.51421229e+03
2084, -9.16015401e+02, 1.51421229e+03, -1.18932298e+02
2085, 1.51421229e+03, -1.18932298e+02, -9.15984599e+02
2086, 1.49740092e+03, -1.31982360e+02, -8.43972044e+02
2087, -1.31982360e+02, -8.43972044e+02, 3.06305885e+00
2088, 1.49741722e+03, -1.31898498e+02, -8.43969935e+02
2089, -1.31898498e+02, -8.43969935e+02, 3.06305885e+00
2090, 1.49740092e+03, -1.31982360e+02, -8.96000000e+02
2091, 1.49740092e+03, -1.31982360e+02, -8.96000000e+02
2092, -1.31982360e+02, -8.96000000e+02, 2.06305885e+00
2093, 8.40000000e+01, 2.00000000e+01, 8.40000000e+01
2094, 2.00000000e+01, 8.40000000e+01, 7.20279556e+01
2095, 1.49741722e+03, -1.31898498e+02, -8.43969935e+02
2096, -1.31898498e+02, -8.43969935e+02, 1.51114370e+03
2097, -8.43969935e+02, 1.51114370e+03, -1.34653686e+02
2098, 1.51114370e+03, -1.34653686e+02, -8.35000000e+02
2099, -1.34653686e+02, -8.35000000e+02, 1.50009145e+03
2100, -8.35000000e+02, 1.50009145e+03, -1.18140736e+02
2101, 1.50009145e+03, -1.18140736e+02, -8.43623879e+02
2102, -1.18140736e+02, -8.43623879e+02, 1.51381506e+03
2103, -8.43623879e+02, 1.51381506e+03, -1.20910911e+02
2104, 1.51381506e+03, -1.20910911e+02, -8.35000056e+02
2105, 3.00625205e+04, 3.00625205e+04, 3.00625205e+04
2106, 8.40000000e+01, 2.00000000e+01, 9.95061728e+01
2107, 2.00000000e+01, 9.95061728e+01, 2.00000000e+01
2108, 8.40000000e+01, 2.00000000e+01, 9.95061728e+01
2109, 2.00000000e+01, 9.95061728e+01, 7.23788906e+01
2110, 8.40000000e+01, 2.00000000e+01, 9.95061728e+01
2111, 2.00000000e+01, 9.95061728e+01, 7.23788906e+01
2112, 1.49691287e+03, -1.32470408e+02, -9.00488049e+02
2113, -1.32470408e+02, -9.00488049e+02, 1.49788896e+03
2114, -9.00488049e+02, 1.49788896e+03, -1.31494311e+02
2115, 1.49788896e+03, -1.31494311e+02, -8.99111951e+02
2116, 1.49740092e+03, -1.31982360e+02, -8.99600000e+02
2117, 1.49738551e+03, -1.31997761e+02, -9.16015401e+02
2118, -1.31997761e+02, -9.16015401e+02, 1.50037503e+03
2119, -9.16015401e+02, 1.50037503e+03, -1.16745678e+02
2120, 1.50037503e+03, -1.16745678e+02, -9.15984599e+02
2121, 1.49691287e+03, -1.32470408e+02, -9.00488049e+02
2122, -1.32470408e+02, -9.00488049e+02, 1.49788896e+03
2123, -9.00488049e+02, 1.49788896e+03, -1.31494311e+02
2124, 1.49788896e+03, -1.31494311e+02, -8.43483996e+02
2125, -1.31494311e+02, -8.43483996e+02, 2.06306839e+00
2126, 2.73774488e-01, 1.00000000e+00, 4.00000000e-01
2127, 1.48138729e+03, -2.14301473e+02, -9.09704125e+02
2128, -2.14301473e+02, -9.09704125e+02, 1.48146374e+03
2129, -9.09704125e+02, 1.48146374e+03, -2.14035839e+02
2130, 1.48146374e+03, -2.14035839e+02, -8.99984599e+02
2131, 2.00000000e-01, 3.40000000e-01, 2.00000000e-01
2132, 3.40000000e-01, 2.00000000e-01, 4.18024691e-01
2133, 1.50031909e+03, -1.19082472e+02, -9.16134774e+02
2134, -1.19082472e+02, -9.16134774e+02, 1.51433166e+03
2135, -9.16134774e+02, 1.51433166e+03, -1.16141551e+02
2136, 1.51433166e+03, -1.16141551e+02, -9.15865226e+02
2137, -4.05123438e+01, -1.01640492e+02, -3.18886068e+01
2138, -1.01640492e+02, -3.18886068e+01, -8.76402410e+01
2139, -4.05123438e+01, -8.76402410e+01, 3.45107664e+01
2140, -8.76402410e+01, 3.45107664e+01, -8.76402410e+01
2141, -4.05123438e+01, -1.01640492e+02, 3.45107664e+01
2142, -1.01640492e+02, 3.45107664e+01, -8.76402410e+01
2143, -4.05123438e+01, -1.01640492e+02, 3.45107664e+01
2144, -1.01640492e+02, 3.45107664e+01, -8.76402410e+01
2145, 1.66504531e+03, -2.33841863e+02, -8.91000000e+02
2146, -2.33841863e+02, -8.91000000e+02, 2.06305885e+00
2147, 1.65908345e+03, -2.34895582e+02, -8.87053719e+02
2148, -2.34895582e+02, -8.87053719e+02, 1.66609902e+03
2149, -8.87053719e+02, 1.66609902e+03, -2.31834099e+02
2150, 1.66609902e+03, -2.31834099e+02, -8.84946281e+02
2151, 1.66013717e+03, -2.32887818e+02, -8.86000000e+02
2152, 1.49816868e+03, -2.01404334e+02, -8.86000000e+02
2153, -2.01404334e+02, -8.86000000e+02, 3.06305885e+00
2154, 1.49816868e+03, -2.01404334e+02, -8.86000000e+02
2155, 1.49815328e+03, -2.03014485e+02, -8.43219675e+02
2156, -2.03014485e+02, -8.43219675e+02, 1.50638836e+03
2157, -8.43219675e+02, 1.50638836e+03, -2.01388934e+02
2158, 1.50638836e+03, -2.01388934e+02, -8.34984599e+02
2159, 5.36667355e-01, 2.92290818e-01, 6.63578423e-01
2160, 2.92290818e-01, 6.63578423e-01, 8.00115655e-01
2161, 5.36667355e-01, 2.92290818e-01, 8.83929098e-01
2162, 2.92290818e-01, 8.83929098e-01, 8.00115655e-01
2163, 5.36667355e-01, 2.92290818e-01, 8.83929098e-01
2164, 2.92290818e-01, 8.83929098e-01, 8.00115655e-01
2165, 1.69995856e+03, 1.12958561e+02, -9.16041439e+02
2166, 1.12958561e+02, -9.16041439e+02, 1.70004144e+03
2167, -9.16041439e+02, 1.70004144e+03, 1.13041439e+02
2168, 1.70004144e+03, 1.13041439e+02, -8.99958561e+02
2169, 1.70000000e+03, 1.13000000e+02, -9.16000000e+02
2170, 1.70000000e+03, 1.13000000e+02, -9.16000000e+02
2171, 1.13000000e+02, -9.16000000e+02, 2.06305885e+00
2172, 1.70000000e+03, 1.13000000e+02, -9.16000000e+02
2173, 5.00000000e-01, 5.00000000e-01, 1.00000000e+00
2174, 5.00000000e-01, 1.00000000e+00, 1.00000000e+00
2175, 3.19000000e+02, 6.85000000e+01, 3.19000000e+02
2176, 7.80583352e-01, 1.56116670e+00, 2.34175006e+00
2177, 1.56116670e+00, 2.34175006e+00, 3.12233341e+00
2178, 2.34175006e+00, 3.12233341e+00, 3.90291676e+00
2179, 3.12233341e+00, 3.90291676e+00, 4.68350011e+00
2180, 3.90291676e+00, 4.68350011e+00, 5.46408347e+00
2181, 4.68350011e+00, 5.46408347e+00, 6.24466682e+00
2182, 5.46408347e+00, 6.24466682e+00, 7.02525017e+00
2183, 6.24466682e+00, 7.02525017e+00, 7.80583352e+00
2184, 7.02525017e+00, 7.80583352e+00, 8.00000000e+00
2185, 7.80583352e-01, 1.56116670e+00, 2.34175006e+00
2186, 1.56116670e+00, 2.34175006e+00, 3.12233341e+00
2187, 2.34175006e+00, 3.12233341e+00, 3.90291676e+00
2188, 3.12233341e+00, 3.90291676e+00, 4.68350011e+00
2189, 3.90291676e+00, 4.68350011e+00, 5.46408347e+00
2190, 4.68350011e+00, 5.46408347e+00, 6.24466682e+00
2191, 5.46408347e+00, 6.24466682e+00, 7.02525017e+00
2192, 6.24466682e+00, 7.02525017e+00, 7.80583352e+00
2193, 7.02525017e+00, 7.80583352e+00, 8.00000000e+00
2194, 1.62337028e+03, 1.12870281e+02, -9.16129719e+02
2195, 1.12870281e+02, -9.16129719e+02, 1.62362972e+03
2196, -9.16129719e+02, 1.62362972e+03, 1.13129719e+02
2197, 1.62362972e+03, 1.13129719e+02, -8.99870281e+02
2198, 1.62350000e+03, 1.13000000e+02, -9.00000000e+02
2199, 1.13000000e+02, -9.00000000e+02, 3.06305885e+00
2200, 1.69999695e+03, -2.54836141e+02, -9.16003053e+02
2201, -2.54836141e+02, -9.16003053e+02, 1.72213015e+03
2202, -9.16003053e+02, 1.72213015e+03, -2.52631709e+02
2203, 1.72213015e+03, -2.52631709e+02, -9.15996947e+02
2204, 1.91926992e-01, 1.65392270e+00, 1.91926992e-01
2205, 1.65392270e+00, 1.91926992e-01, 2.42975750e+00
2206, 1.70000000e+03, -2.54765415e+02, -9.16055261e+02
2207, -2.54765415e+02, -9.16055261e+02, 1.72212710e+03
2208, -9.16055261e+02, 1.72212710e+03, -2.50597329e+02
2209, 1.72212710e+03, -2.50597329e+02, -8.34946442e+02
2210, 1.67787290e+03, -2.54765415e+02, -9.16055261e+02
2211, -2.54765415e+02, -9.16055261e+02, 1.72212710e+03
2212, -9.16055261e+02, 1.72212710e+03, -2.50597329e+02
2213, 1.72212710e+03, -2.50597329e+02, -8.34946442e+02
2214, 1.08154043e-02, 6.08154043e-02, 1.10815404e-01
2215, 6.08154043e-02, 1.10815404e-01, 1.60815404e-01
2216, 1.10815404e-01, 1.60815404e-01, 2.10815404e-01
2217, 1.60815404e-01, 2.10815404e-01, 2.60815404e-01
2218, 2.10815404e-01, 2.60815404e-01, 3.10815404e-01
2219, 2.60815404e-01, 3.10815404e-01, 3.60815404e-01
2220, 3.10815404e-01, 3.60815404e-01, 4.10815404e-01
2221, -5.00000000e+00, 7.27527727e-01, 3.00000000e+00
2222, 7.27527727e-01, 3.00000000e+00, 1.00000000e+00
2223, -5.00000000e+00, 7.27527727e-01, 3.00000000e+00
2224, 7.27527727e-01, 3.00000000e+00, 1.00000000e+00
2225, 9.00000000e+00, 1.00000000e+00, 1.40000000e+01
2226, 1.00000000e+00, 1.40000000e+01, 1.00000000e+00
2227, -5.00000000e+00, 5.89184596e-01, -5.00000000e+00
2228, 5.89184596e-01, -5.00000000e+00, 1.00000000e+00
2229, 4.69955798e+01, -1.37750000e+02, 6.49511090e+01
2230, -1.37750000e+02, 6.49511090e+01, -1.37750000e+02
2231, 1.65751421e+03, -1.46805764e+02, -8.95000000e+02
2232, 1.65751421e+03, -1.46805764e+02, -8.95000000e+02
2233, 1.15757202e-01, 1.18807926e-01, 8.84248210e-01
2234, 1.18807926e-01, 8.84248210e-01, 1.18811378e-01
2235, 1.62460679e+03, -1.42320946e+02, -8.59003053e+02
2236, -1.42320946e+02, -8.59003053e+02, 1.63442917e+03
2237, -8.59003053e+02, 1.63442917e+03, -1.40406750e+02
2238, 1.63442917e+03, -1.40406750e+02, -8.48996947e+02
2239, 4.65689370e-10, 2.00012063e+00, 8.59045274e+09
2240, 1.65751421e+03, -1.46805764e+02, -8.35000000e+02
2241, 2.35202293e+01, -1.01750000e+02, 3.35202293e+01
2242, -1.01750000e+02, 3.35202293e+01, -9.17500000e+01
2243, 1.65751421e+03, -1.46805764e+02, -9.00000000e+02
2244, -1.46805764e+02, -9.00000000e+02, 3.06305885e+00
2245, 1.65751421e+03, -1.46805764e+02, -9.00000000e+02
2246, -1.46805764e+02, -9.00000000e+02, 3.06305885e+00
2247, 4.99963313e-01, 4.99963313e-01, 1.00000000e+00
2248, 4.99963313e-01, 1.00000000e+00, 1.00000000e+00
2249, 1.15762692e-01, 8.81188622e-01, 8.84248249e-01
2250, 8.81188622e-01, 8.84248249e-01, 8.81192074e-01
2251, 1.74075466e+03, -1.42674718e+02, -9.00777090e+02
2252, -1.42674718e+02, -9.00777090e+02, 1.78844097e+03
2253, -9.00777090e+02, 1.78844097e+03, -1.32153359e+02
2254, 1.78844097e+03, -1.32153359e+02, -8.99222910e+02
2255, 1.74153175e+03, -1.41897628e+02, -9.00000000e+02
2256, -1.41897628e+02, -9.00000000e+02, 2.06305885e+00
2257, 1.78745687e+03, -1.38045338e+02, -9.00206690e+02
2258, -1.38045338e+02, -9.00206690e+02, 1.78882429e+03
2259, -9.00206690e+02, 1.78882429e+03, -1.32723823e+02
2260, 1.78882429e+03, -1.32723823e+02, -8.99793310e+02
2261, 1.69999695e+03, -2.32805504e+02, -9.00003053e+02
2262, -2.32805504e+02, -9.00003053e+02, 1.70000305e+03
2263, -9.00003053e+02, 1.70000305e+03, -2.32761645e+02
2264, 1.70000305e+03, -2.32761645e+02, -8.99996947e+02
2265, 1.69907780e+03, -2.39687283e+02, -9.00922205e+02
2266, -2.39687283e+02, -9.00922205e+02, 1.80657426e+03
2267, -9.00922205e+02, 1.80657426e+03, 1.13796439e+02
2268, 1.80657426e+03, 1.13796439e+02, -8.99077795e+02
2269, 1.60960435e+03, -1.24642404e+02, -9.00015401e+02
2270, -1.24642404e+02, -9.00015401e+02, 1.62851540e+03
2271, -9.00015401e+02, 1.62851540e+03, -7.63982112e+01
2272, 1.62851540e+03, -7.63982112e+01, -8.99984599e+02
2273, -7.63982112e+01, -8.99984599e+02, 2.06305885e+00
2274, 1.61233612e+03, -1.32930449e+02, -9.00000000e+02
2275, -1.32930449e+02, -9.00000000e+02, 2.06305885e+00
2276, 1.65745854e+03, -1.46861430e+02, -9.00055666e+02
2277, -1.46861430e+02, -9.00055666e+02, 1.65852392e+03
2278, -9.00055666e+02, 1.65852392e+03, -1.41841962e+02
2279, 1.65852392e+03, -1.41841962e+02, -8.99944334e+02
2280, 1.69999695e+03, -2.32805504e+02, -9.00003053e+02
2281, -2.32805504e+02, -9.00003053e+02, 1.70000305e+03
2282, -9.00003053e+02, 1.70000305e+03, -2.32761645e+02
2283, 1.70000305e+03, -2.32761645e+02, -8.99996947e+02
2284, 1.59374172e+03, -2.40334178e+02, -9.01976153e+02
2285, -2.40334178e+02, -9.01976153e+02, 1.70197615e+03
2286, -9.01976153e+02, 1.70197615e+03, 1.13345862e+02
2287, 1.70197615e+03, 1.13345862e+02, -8.98023847e+02
2288, 1.62350000e+03, 1.21000000e+02, -9.16000000e+02
2289, 1.62350000e+03, 1.21000000e+02, -9.16000000e+02
2290, 1.62348460e+03, 1.63860092e+02, -9.16015401e+02
2291, 1.63860092e+02, -9.16015401e+02, 1.62351540e+03
2292, -9.16015401e+02, 1.62351540e+03, 1.69015401e+02
2293, 1.62351540e+03, 1.69015401e+02, -9.15984599e+02
2294, 1.69015401e+02, -9.15984599e+02, 2.06305885e+00
2295, 1.62350000e+03, 1.69000000e+02, -9.16000000e+02
2296, 1.62350000e+03, 1.83000000e+02, -9.02000000e+02
2297, 1.83000000e+02, -9.02000000e+02, 1.62350000e+03
2298, -9.02000000e+02, 1.62350000e+03, 1.69000000e+02
2299, 1.62350000e+03, 1.69000000e+02, -9.16000000e+02
2300, 1.69000000e+02, -9.16000000e+02, 1.62350000e+03
2301, -9.16000000e+02, 1.62350000e+03, 1.83000000e+02
2302, 1.62350000e+03, 1.83000000e+02, -9.22000000e+02
2303, 1.83000000e+02, -9.22000000e+02, 1.62350000e+03
2304, -9.22000000e+02, 1.62350000e+03, 1.69000000e+02
2305, 1.62350000e+03, 1.69000000e+02, -9.36000000e+02
2306, 1.62328157e+03, 1.66781571e+02, -8.51218429e+02
2307, 1.66781571e+02, -8.51218429e+02, 1.62371843e+03
2308, -8.51218429e+02, 1.62371843e+03, 1.83218429e+02
2309, 1.62371843e+03, 1.83218429e+02, -8.50781571e+02
2310, 1.83218429e+02, -8.50781571e+02, 2.06305885e+00
2311, 1.62350000e+03, 1.67000000e+02, -8.51000000e+02
2312, 1.62350000e+03, 1.67000000e+02, -8.51000000e+02
2313, 1.62350000e+03, 1.62000000e+02, -8.51000000e+02
2314, 1.62350000e+03, 1.62000000e+02, -8.51000000e+02
2315, 1.62291388e+03, 3.24138757e+01, -8.35586124e+02
2316, 3.24138757e+01, -8.35586124e+02, 1.62408612e+03
2317, -8.35586124e+02, 1.62408612e+03, 1.62586124e+02
2318, 1.62408612e+03, 1.62586124e+02, -7.83673876e+02
2319, 1.62586124e+02, -7.83673876e+02, 3.06305885e+00
2320, 1.62350000e+03, 3.30000000e+01, -8.35000000e+02
2321, 1.62350000e+03, 3.30000000e+01, -8.35000000e+02
2322, 8.76044382e-01, 1.23232694e-01, 8.84359611e-01
2323, 1.23232694e-01, 8.84359611e-01, 7.79890866e-01
2324, 1.62348460e+03, 1.68984599e+02, -9.16015401e+02
2325, 1.68984599e+02, -9.16015401e+02, 1.62351540e+03
2326, -9.16015401e+02, 1.62351540e+03, 1.83015401e+02
2327, 1.62351540e+03, 1.83015401e+02, -9.15984599e+02
2328, 1.83015401e+02, -9.15984599e+02, 3.06305885e+00
2329, 1.62350000e+03, 1.83000000e+02, -9.16000000e+02
2330, 1.62348460e+03, 1.68984599e+02, -9.16015401e+02
2331, 1.68984599e+02, -9.16015401e+02, 1.62351540e+03
2332, -9.16015401e+02, 1.62351540e+03, 1.83015401e+02
2333, 1.62351540e+03, 1.83015401e+02, -9.01984599e+02
2334, 1.62150000e+03, 1.83000000e+02, -9.02000000e+02
2335, 1.62150000e+03, 1.83000000e+02, -9.02000000e+02
2336, 1.60748460e+03, 1.82984599e+02, -9.16015401e+02
2337, 1.82984599e+02, -9.16015401e+02, 1.62351540e+03
2338, -9.16015401e+02, 1.62351540e+03, 1.83015401e+02
2339, 1.62351540e+03, 1.83015401e+02, -9.15984599e+02
2340, 1.60748460e+03, 1.82984599e+02, -9.02015401e+02
2341, 1.82984599e+02, -9.02015401e+02, 1.62351540e+03
2342, -9.02015401e+02, 1.62351540e+03, 1.83015401e+02
2343, 1.62351540e+03, 1.83015401e+02, -8.50984599e+02
2344, 1.60748460e+03, 1.63860342e+02, -9.16015401e+02
2345, 1.63860342e+02, -9.16015401e+02, 1.60751540e+03
2346, -9.16015401e+02, 1.60751540e+03, 1.69015401e+02
2347, 1.60751540e+03, 1.69015401e+02, -9.15984599e+02
2348, 8.83663775e-01, 1.16518996e-01, 8.83714500e-01
2349, 1.16518996e-01, 8.83714500e-01, 8.83539090e-01
2350, 1.60733217e+03, 1.63707668e+02, -7.83690131e+02
2351, 1.63707668e+02, -7.83690131e+02, 1.62366783e+03
2352, -7.83690131e+02, 1.62366783e+03, 1.64043318e+02
2353, 1.62366783e+03, 1.64043318e+02, -7.83354481e+02
2354, 1.48143294e+03, -2.14066641e+02, -9.00015401e+02
2355, -2.14066641e+02, -9.00015401e+02, 1.48146563e+03
2356, -9.00015401e+02, 1.48146563e+03, -2.14026144e+02
2357, 1.48146563e+03, -2.14026144e+02, -8.99584599e+02
2358, 1.48158951e+03, -2.12875605e+02, -8.46652378e+02
2359, -2.12875605e+02, -8.46652378e+02, 1.48452620e+03
2360, -8.46652378e+02, 1.48452620e+03, -1.98729393e+02
2361, 1.48452620e+03, -1.98729393e+02, -8.46413529e+02
2362, 8.71974228e-01, 2.64238590e-01, 8.84197185e-01
2363, 2.64238590e-01, 8.84197185e-01, 8.83631914e-01
2364, 1.48406845e+03, -1.99088163e+02, -9.00354520e+02
2365, -1.99088163e+02, -9.00354520e+02, 1.48478369e+03
2366, -9.00354520e+02, 1.48478369e+03, -1.98377919e+02
2367, 1.48478369e+03, -1.98377919e+02, -8.46178521e+02
2368, 1.69813506e+03, 1.65135065e+02, -8.52864935e+02
2369, 1.65135065e+02, -8.52864935e+02, 1.77336494e+03
2370, -8.52864935e+02, 1.77336494e+03, 1.68864935e+02
2371, 1.77336494e+03, 1.68864935e+02, -8.49135065e+02
2372, 1.62348460e+03, 1.66984599e+02, -8.51015401e+02
2373, 1.66984599e+02, -8.51015401e+02, 1.62851540e+03
2374, -8.51015401e+02, 1.62851540e+03, 1.67015401e+02
2375, 1.62851540e+03, 1.67015401e+02, -8.50984599e+02
2376, 1.62348460e+03, 1.63860092e+02, -8.51015401e+02
2377, 1.63860092e+02, -8.51015401e+02, 1.70001540e+03
2378, -8.51015401e+02, 1.70001540e+03, 1.67015401e+02
2379, 1.70001540e+03, 1.67015401e+02, -8.50984599e+02
2380, 1.62348460e+03, 1.63644335e+02, -8.52233511e+02
2381, 1.63644335e+02, -8.52233511e+02, 1.77769147e+03
2382, -8.52233511e+02, 1.77769147e+03, 1.83642353e+02
2383, 1.77769147e+03, 1.83642353e+02, -8.49766489e+02
2384, 5.88235294e-02, 5.88235294e-02, 1.00000000e+00
2385, 5.88235294e-02, 1.00000000e+00, 1.00000000e+00
2386, 1.60000000e+02, -1.28750000e+02, 1.60000000e+02
2387, -1.28750000e+02, 1.60000000e+02, -8.07500000e+01
2388, 1.62155384e+03, -1.58026981e+02, -8.59003053e+02
2389, -1.58026981e+02, -8.59003053e+02, 1.63137622e+03
2390, -8.59003053e+02, 1.63137622e+03, -1.56112785e+02
2391, 1.63137622e+03, -1.56112785e+02, -8.48996947e+02
2392, 4.65689370e-10, 2.00012063e+00, 8.59045274e+09
2393, 1.26479771e+02, -1.01750000e+02, 1.36479771e+02
2394, -1.01750000e+02, 1.36479771e+02, -9.17500000e+01
2395, 2.50000000e-01, 2.50000000e-01, 5.00000000e-01
2396, 2.50000000e-01, 5.00000000e-01, 5.00000000e-01
2397, 5.00000000e-01, 5.00000000e-01, 7.50000000e-01
2398, 5.00000000e-01, 7.50000000e-01, 7.50000000e-01
2399, 7.50000000e-01, 7.50000000e-01, 1.00000000e+00
2400, 7.50000000e-01, 1.00000000e+00, 1.00000000e+00
2401, 1.65435316e+03, -1.62619905e+02, -8.38108106e+02
2402, -1.62619905e+02, -8.38108106e+02, 1.65456937e+03
2403, -8.38108106e+02, 1.65456937e+03, -1.62403693e+02
2404, 1.65456937e+03, -1.62403693e+02, -8.34891894e+02
2405, 1.51114064e+03, -1.34656739e+02, -8.35003109e+02
2406, -1.34656739e+02, -8.35003109e+02, 1.51381811e+03
2407, -8.35003109e+02, 1.51381811e+03, -1.20907858e+02
2408, 1.51381811e+03, -1.20907858e+02, -8.34996947e+02
2409, 1.51338364e+03, -1.27980128e+02, -8.35431634e+02
2410, -1.27980128e+02, -8.35431634e+02, 1.54839409e+03
2411, -8.35431634e+02, 1.54839409e+03, -1.20479319e+02
2412, 1.54839409e+03, -1.20479319e+02, -8.34568366e+02
2413, 1.52026567e+02, 7.84493725e+01, 1.86184978e+02
2414, 7.84493725e+01, 1.86184978e+02, 8.50890949e+01
2415, -7.77500000e+01, 1.60000000e+01, -7.77500000e+01
2416, 4.24857910e+01, 4.34882010e+01, 1.88856304e+02
2417, 4.34882010e+01, 1.88856304e+02, 2.39000000e+02
2418, 4.24857910e+01, 4.34882010e+01, 1.88856304e+02
2419, 4.34882010e+01, 1.88856304e+02, 2.39000000e+02
2420, 1.49454192e+03, -2.01055288e+02, -9.00298001e+02
2421, -2.01055288e+02, -9.00298001e+02, 1.49513792e+03
2422, -9.00298001e+02, 1.49513792e+03, -2.00459287e+02
2423, 1.49513792e+03, -2.00459287e+02, -8.46235041e+02
2424, 2.05608930e+02, -1.42750000e+02, 2.09000000e+02
2425, -1.42750000e+02, 2.09000000e+02, -8.59542747e+01
2426, 2.05608930e+02, -1.42750000e+02, 2.09000000e+02
2427, -1.42750000e+02, 2.09000000e+02, -8.59542747e+01
2428, 1.49738551e+03, -1.32760997e+02, -9.00015401e+02
2429, -1.32760997e+02, -9.00015401e+02, 1.50134283e+03
2430, -9.00015401e+02, 1.50134283e+03, -1.31966959e+02
2431, 1.50134283e+03, -1.31966959e+02, -8.95984599e+02
2432, 1.49507138e+03, -2.18328319e+02, -9.16073095e+02
2433, -2.18328319e+02, -9.16073095e+02, 1.50107860e+03
2434, -9.16073095e+02, 1.50107860e+03, -2.16891950e+02
2435, 1.50107860e+03, -2.16891950e+02, -9.09927383e+02
2436, 4.93963661e-02, 4.93963661e-02, 1.00000000e+00
2437, 4.93963661e-02, 1.00000000e+00, 1.00000000e+00
2438, 3.45109937e+01, 9.13595077e+01, 4.05123438e+01
2439, 9.13595077e+01, 4.05123438e+01, 9.73590292e+01
2440, 2.21270995e+01, -4.66347623e+01, 1.98994496e+02
2441, -4.66347623e+01, 1.98994496e+02, -1.22552231e+01
2442, -4.05123438e+01, -8.88182621e+01, 4.05123438e+01
2443, -8.88182621e+01, 4.05123438e+01, 9.73594372e+01
2444, -4.05123438e+01, -8.88182621e+01, 4.05123438e+01
2445, -8.88182621e+01, 4.05123438e+01, 9.73594372e+01
2446, 1.49543055e+03, -2.15427375e+02, -8.45942414e+02
2447, -2.15427375e+02, -8.45942414e+02, 1.49551276e+03
2448, -8.45942414e+02, 1.49551276e+03, -2.15131714e+02
2449, 1.49551276e+03, -2.15131714e+02, -8.34984599e+02
2450, 1.48130359e+03, -2.16997114e+02, -9.09787834e+02
2451, -2.16997114e+02, -9.09787834e+02, 1.49493903e+03
2452, -9.09787834e+02, 1.49493903e+03, -2.14186963e+02
2453, 1.49493903e+03, -2.14186963e+02, -9.09589615e+02
2454, -2.14186963e+02, -9.09589615e+02, 2.06305885e+00
2455, 1.49483992e+03, -2.16898004e+02, -9.09688724e+02
2456, -2.16898004e+02, -9.09688724e+02, 2.06305885e+00
2457, 1.48155174e+03, -2.15446956e+02, -8.46696716e+02
2458, -2.15446956e+02, -8.46696716e+02, 1.49566103e+03
2459, -8.46696716e+02, 1.49566103e+03, -2.12594599e+02
2460, 1.49566103e+03, -2.12594599e+02, -8.34836325e+02
2461, 1.49987083e-01, 1.00000000e+00, 5.00000000e-01
2462, 1.49987083e-01, 1.00000000e+00, 5.00000000e-01
2463, 1.60749695e+03, 3.29969470e+01, -8.35003053e+02
2464, 3.29969470e+01, -8.35003053e+02, 1.62350305e+03
2465, -8.35003053e+02, 1.62350305e+03, 1.63878546e+02
2466, 1.62350305e+03, 1.63878546e+02, -7.83519253e+02
2467, 1.52589270e+03, -1.25099679e+02, -8.59238760e+02
2468, -1.25099679e+02, -8.59238760e+02, 1.53623361e+03
2469, -8.59238760e+02, 1.53623361e+03, -1.22471693e+02
2470, 1.53623361e+03, -1.22471693e+02, -8.48761240e+02
2471, -1.22471693e+02, -8.48761240e+02, 3.06305885e+00
2472, 1.53108671e+03, -1.23664498e+02, -8.59000000e+02
2473, 1.86895735e+03, -1.37992036e+02, -8.49003053e+02
2474, -1.37992036e+02, -8.49003053e+02, 1.87170074e+03
2475, -8.49003053e+02, 1.87170074e+03, -1.23903822e+02
2476, 1.87170074e+03, -1.23903822e+02, -8.48996947e+02
2477, 2.10156981e-02, 1.00000000e+00, 3.41015698e-01
2478, 2.10156981e-02, 1.00000000e+00, 3.41015698e-01
2479, 1.87991026e+03, -2.18258556e+02, -9.16003333e+02
2480, -2.18258556e+02, -9.16003333e+02, 1.89899783e+03
2481, -9.16003333e+02, 1.89899783e+03, -1.20089171e+02
2482, 1.89899783e+03, -1.20089171e+02, -9.15996667e+02
2483, 1.50099010e+03, -2.56563154e+02, -9.17730065e+02
2484, -2.56563154e+02, -9.17730065e+02, 1.70173007e+03
2485, -9.17730065e+02, 1.70173007e+03, 1.63891144e+02
2486, 1.70173007e+03, 1.63891144e+02, -9.14269935e+02
2487, -3.05180106e-05, 1.31073389e+05, -4.65661287e-10
*ELEMENT, TYPE=C3D4
1, 1280, 4864, 7424, 9728
2, 288, 4, 71, 104
3, 4, 71, 104, 94
4, 71, 104, 94, 12
5, 104, 94, 12, 111
6, 111, 2, 105, 87
7, 2, 105, 87, 3
8, 2, 86, 104, 3
9, 113, 2, 23, 99
10, 2, 23, 99, 3
11, 2, 94, 19, 3
12, 2, 80, 52, 3
13, 2, 47, 76, 3
14, 117, 2, 42, 32
15, 2, 42, 32, 3
16, 2, 29, 38, 3
17, 384, 9, 186, 196
18, 9, 186, 196, 126
19, 186, 196, 126, 136
20, 196, 126, 136, 146
21, 126, 136, 146, 157
22, 136, 146, 157, 160
23, 146, 157, 160, 169
24, 157, 160, 169, 179
25, 160, 169, 179, 202
26, 2, 164, 151, 3
27, 2, 146, 160, 3
28, 210, 2, 130, 197
29, 2, 130, 197, 3
30, 2, 196, 126, 3
31, 75520, 76032, 78592, 78080
32, 76032, 78592, 78080, 77568
33, 78592, 78080, 77568, 76544
34, 78080, 77568, 76544, 77056
35, 84736, 87040, 80640, 83200
36, 1, 7, 424, 426
37, 7, 424, 426, 428
38, 424, 426, 428, 430
39, 426, 428, 430, 432
40, 428, 430, 432, 434
41, 430, 432, 434, 436
42, 1, 4, 465, 469
43, 4, 465, 469, 429
44, 465, 469, 429, 467
45, 384, 6, 473, 255
46, 6, 473, 255, 482
47, 473, 255, 482, 491
48, 255, 482, 491, 502
49, 482, 491, 502, 513
50, 491, 502, 513, 306
51, 502, 513, 306, 520
52, 520, 2, 477, 514
53, 2, 477, 514, 3
54, 2, 513, 473, 3
55, 524, 2, 496, 486
56, 2, 496, 486, 3
57, 2, 482, 491, 3
58, 1, 4, 298, 349
59, 4, 298, 349, 546
60, 298, 349, 546, 544
61, 384, 4, 550, 564
62, 4, 550, 564, 575
63, 550, 564, 575, 584
64, 564, 575, 584, 591
65, 1, 4, 591, 623
66, 4, 591, 623, 621
67, 591, 623, 621, 625
68, 274, 275, 263, 643
69, 384, 8, 651, 660
70, 8, 651, 660, 670
71, 651, 660, 670, 631
72, 660, 670, 631, 173
73, 670, 631, 173, 637
74, 631, 173, 637, 275
75, 173, 637, 275, 643
76, 637, 275, 643, 676
77, 2, 655, 646, 3
78, 2, 643, 651, 3
79, 680, 2, 632, 671
80, 2, 632, 671, 3
81, 2, 670, 631, 3
82, 256, 7, 686, 151
83, 7, 686, 151, 689
84, 686, 151, 689, 335
85, 151, 689, 335, 284
86, 689, 335, 284, 638
87, 335, 284, 638, 164
88, 284, 638, 164, 695
89, 347, 302, 683, 205
90, 1, 5, 825, 827
91, 5, 825, 827, 829
92, 825, 827, 829, 831
93, 827, 829, 831, 833
94, 12, 786, 784, 837
95, 1, 5, 826, 877
96, 5, 826, 877, 875
97, 826, 877, 875, 873
98, 877, 875, 873, 523
99, 8, 807, 817, 750
100, 807, 817, 750, 881
101, 1, 4, 924, 928
102, 4, 924, 928, 832
103, 924, 928, 832, 926
104, 384, 12, 998, 1007
105, 12, 998, 1007, 190
106, 998, 1007, 190, 932
107, 1007, 190, 932, 973
108, 190, 932, 973, 982
109, 932, 973, 982, 942
110, 973, 982, 942, 988
111, 982, 942, 988, 1024
112, 942, 988, 1024, 1013
113, 988, 1024, 1013, 954
114, 1024, 1013, 954, 964
115, 1013, 954, 964, 203
116, 954, 964, 203, 1030
117, 1030, 2, 977, 935
118, 2, 977, 935, 3
119, 2, 932, 973, 3
120, 1, 7, 203, 1030
121, 7, 203, 1030, 1050
122, 203, 1030, 1050, 1052
123, 1030, 1050, 1052, 1054
124, 1050, 1052, 1054, 1056
125, 1052, 1054, 1056, 1058
126, 12, 935, 934, 180
127, 935, 934, 180, 123
128, 934, 180, 123, 632
129, 180, 123, 632, 171
130, 123, 632, 171, 630
131, 632, 171, 630, 671
132, 171, 630, 671, 662
133, 630, 671, 662, 1062
134, 256, 4, 1072, 341
135, 4, 1072, 341, 690
136, 1072, 341, 690, 140
137, 341, 690, 140, 696
138, 690, 140, 696, 213
139, 140, 696, 213, 1078
140, 253, 1083, 646, 645
141, 1083, 646, 645, 265
142, 646, 645, 265, 264
143, 645, 265, 264, 1090
144, 256, 6, 945, 983
145, 6, 945, 983, 1063
146, 945, 983, 1063, 664
147, 983, 1063, 664, 1097
148, 1063, 664, 1097, 993
149, 664, 1097, 993, 679
150, 1097, 993, 679, 1069
151, 993, 679, 1069, 1051
152, 679, 1069, 1051, 1105
153, 384, 7, 1153, 1162
154, 7, 1153, 1162, 1135
155, 1153, 1162, 1135, 1110
156, 1162, 1135, 1110, 1121
157, 1135, 1110, 1121, 52
158, 1110, 1121, 52, 1127
159, 256, 6, 1220, 1270
160, 6, 1220, 1270, 1261
161, 1220, 1270, 1261, 1252
162, 1270, 1261, 1252, 1243
163, 1261, 1252, 1243, 1231
164, 1252, 1243, 1231, 1277
165, 1277, 2, 1271, 1212
166, 2, 1271, 1212, 3
167, 2, 1207, 1270, 3
168, 1279, 2, 1255, 1265
169, 2, 1255, 1265, 3
170, 2, 1261, 1252, 3
171, 2, 1237, 1247, 3
172, 2, 1243, 1236, 3
173, 10, 1318, 1403, 1314
174, 1318, 1403, 1314, 1394
175, 1403, 1314, 1394, 1409
176, 6, 1295, 1294, 1437
177, 384, 3, 1295, 1447
178, 3, 1295, 1447, 1437
179, 1295, 1447, 1437, 114
180, 1447, 1437, 114, 1453
181, 1457, 2, 1369, 1360
182, 2, 1369, 1360, 3
183, 2, 1359, 1365, 3
184, 1459, 2, 1431, 1424
185, 2, 1431, 1424, 3
186, 2, 1421, 1430, 3
187, 1461, 2, 1396, 1385
188, 2, 1396, 1385, 3
189, 2, 1381, 1391, 3
190, 2, 1448, 1375, 3
191, 2, 1374, 1447, 3
192, 2, 1307, 1441, 3
193, 2, 1437, 1301, 3
194, 1467, 2, 1329, 1416
195, 2, 1329, 1416, 3
196, 2, 1415, 1325, 3
197, 382464, 387840, 390144, 385536
198, 1, 5, 425, 1582
199, 5, 425, 1582, 1586
200, 425, 1582, 1586, 1533
201, 1582, 1586, 1533, 1584
202, 12, 1439, 1483, 1368
203, 1439, 1483, 1368, 387
204, 1483, 1368, 387, 1500
205, 1368, 387, 1500, 1590
206, 414976, 410368, 413440, 417792
207, 410368, 413440, 417792, 419328
208, 420608, 420352, 415744, 423936
209, 8, 1650, 1554, 1641
210, 1650, 1554, 1641, 1576
211, 1554, 1641, 1576, 1682
212, 1693, 1712, 1703, 1762
213, 449280, 446720, 443136, 440064
214, 1692, 1756, 1748, 1789
215, 457984, 449536, 456448, 452864
216, 449536, 456448, 452864, 459520
217, 16, 1676, 1784, 1669
218, 1676, 1784, 1669, 1623
219, 1784, 1669, 1623, 1691
220, 1669, 1623, 1691, 1773
221, 1623, 1691, 1773, 1812
222, 1813, 1823, 1833, 1626
223, 1823, 1833, 1626, 1694
224, 1833, 1626, 1694, 1601
225, 473344, 475904, 474880, 475392
226, 475904, 474880, 475392, 474368
227, 474880, 475392, 474368, 473856
228, 384, 5, 1670, 1683
229, 5, 1670, 1683, 1569
230, 1670, 1683, 1569, 1863
231, 1683, 1569, 1863, 1869
232, 1569, 1863, 1869, 1583
233, 1863, 1869, 1583, 1875
234, 384, 6, 1881, 1895
235, 6, 1881, 1895, 1906
236, 1881, 1895, 1906, 1212
237, 1895, 1906, 1212, 958
238, 1906, 1212, 958, 1912
239, 1212, 958, 1912, 1918
240, 1897, 1907, 1210, 1271
241, 1907, 1210, 1271, 1263
242, 1210, 1271, 1263, 1959
243, 256, 6, 1969, 1959
244, 6, 1969, 1959, 1271
245, 1969, 1959, 1271, 1907
246, 1959, 1271, 1907, 1952
247, 1271, 1907, 1952, 1938
248, 1907, 1952, 1938, 1976
249, 1, 8, 1055, 2016
250, 8, 1055, 2016, 2014
251, 1055, 2016, 2014, 2006
252, 2016, 2014, 2006, 2010
253, 2014, 2006, 2010, 2012
254, 2006, 2010, 2012, 2008
255, 2010, 2012, 2008, 1278
256, 12, 850, 847, 504
257, 850, 847, 504, 2020
258, 384, 6, 2043, 2035
259, 6, 2043, 2035, 2049
260, 2043, 2035, 2049, 2055
261, 2035, 2049, 2055, 2029
262, 2049, 2055, 2029, 850
263, 2055, 2029, 850, 2058
264, 2060, 2, 2038, 2044
265, 2, 2038, 2044, 3
266, 2, 2043, 2035, 3
267, 384, 6, 2111, 2120
268, 6, 2111, 2120, 2084
269, 2111, 2120, 2084, 2070
270, 2120, 2084, 2070, 532
271, 2084, 2070, 532, 2076
272, 3, 4, 2130, 2132
273, 4, 2130, 2132, 2134
274, 2130, 2132, 2134, 545
275, 2132, 2134, 545, 1
276, 2134, 545, 1, 2126
277, 30, 31, 32, 22
278, 31, 32, 22, 1335
279, 32, 22, 1335, 1328
280, 22, 1335, 1328, 2138
281, 111360, 110848, 110336, 120320
282, 384, 4, 2172, 2181
283, 4, 2172, 2181, 514
284, 2172, 2181, 514, 2030
285, 2181, 514, 2030, 2187
286, 1, 5, 1103, 521
287, 5, 1103, 521, 2059
288, 1103, 521, 2059, 2201
289, 521, 2059, 2201, 1053
290, 8, 2024, 1037, 2205
291, 416, 4, 2215, 2151
292, 4, 2215, 2151, 913
293, 2215, 2151, 913, 769
294, 2151, 913, 769, 927
295, 913, 769, 927, 830
296, 769, 927, 830, 2221
297, 735, 496, 485, 494
298, 496, 485, 494, 794
299, 485, 494, 794, 800
300, 494, 794, 800, 793
301, 384, 6, 2216, 741
302, 6, 2216, 741, 2226
303, 2216, 741, 2226, 486
304, 741, 2226, 486, 244
305, 2226, 486, 244, 2071
306, 486, 244, 2071, 525
307, 244, 2071, 525, 308
308, 2071, 525, 308, 828
309, 525, 308, 828, 2222
310, 308, 828, 2222, 2135
311, 1888, 1889, 1885, 2243
312, 384, 3, 2280, 2268
313, 3, 2280, 2268, 2290
314, 2280, 2268, 2290, 2296
315, 8, 2323, 2330, 2026
316, 2323, 2330, 2026, 1923
317, 2330, 2026, 1923, 2206
318, 2026, 1923, 2206, 2336
319, 8, 2322, 2324, 2314
320, 2322, 2324, 2314, 2337
321, 2324, 2314, 2337, 2256
322, 2314, 2337, 2256, 2344
323, 2337, 2256, 2344, 2266
324, 2256, 2344, 2266, 2274
325, 2, 4, 466, 2392
326, 4, 466, 2392, 925
327, 466, 2392, 925, 2167
328, 2392, 925, 2167, 1
329, 925, 2167, 1, 2394
330, 12, 839, 841, 785
331, 839, 841, 785, 810
332, 841, 785, 810, 808
333, 785, 810, 808, 2350
334, 810, 808, 2350, 2284
335, 808, 2350, 2284, 896
336, 2350, 2284, 896, 895
337, 2284, 896, 895, 2398
338, 1, 5, 2357, 878
339, 5, 2357, 878, 834
340, 2357, 878, 834, 929
341, 878, 834, 929, 2407
342, 2414, 2425, 2452, 2462
343, 2425, 2452, 2462, 2434
344, 2452, 2462, 2434, 2427
345, 2462, 2434, 2427, 2422
346, 2514, 2516, 2505, 2506
347, 2516, 2505, 2506, 2496
348, 8, 2631, 2630, 2653
349, 288, 4, 2603, 2664
350, 4, 2603, 2664, 2653
351, 2603, 2664, 2653, 2631
352, 2664, 2653, 2631, 2670
353, 2670, 2, 2647, 2658
354, 2, 2647, 2658, 3
355, 2, 2653, 2646, 3
356, 2672, 2, 2665, 2613
357, 2, 2665, 2613, 3
358, 2, 2609, 2664, 3
359, 2, 2583, 2640, 3
360, 2, 2636, 2578, 3
361, 2676, 2, 2620, 2571
362, 2, 2620, 2571, 3
363, 2, 2565, 2619, 3
364, 706304, 707840, 708352, 708864
365, 707840, 708352, 708864, 707328
366, 708352, 708864, 707328, 706816
367, 256, 8, 2845, 2828
368, 8, 2845, 2828, 2838
369, 2845, 2828, 2838, 2815
370, 2828, 2838, 2815, 2806
371, 2838, 2815, 2806, 2797
372, 2815, 2806, 2797, 2788
373, 2806, 2797, 2788, 2773
374, 2797, 2788, 2773, 2854
375, 2, 2809, 2819, 3
376, 2, 2815, 2806, 3
377, 1, 5, 2859, 2907
378, 5, 2859, 2907, 2909
379, 2859, 2907, 2909, 2911
380, 2907, 2909, 2911, 2905
381, 755968, 753408, 750592, 759552
382, 2918, 2922, 2921, 3016
383, 2826, 2817, 2900, 2892
384, 2817, 2900, 2892, 3095
385, 2744, 2746, 2736, 3142
386, 1, 5, 3161, 2867
387, 5, 3161, 2867, 2906
388, 3161, 2867, 2906, 3170
389, 2867, 2906, 3170, 2766
390, 8, 3187, 3177, 3234
391, 843520, 844544, 845056, 844032
392, 256, 6, 3382, 3388
393, 6, 3382, 3388, 3342
394, 3382, 3388, 3342, 3372
395, 3388, 3342, 3372, 3364
396, 3342, 3372, 3364, 3355
397, 3372, 3364, 3355, 3398
398, 3404, 3, 3367, 3373
399, 3, 3367, 3373, 3314
400, 3367, 3373, 3314, 4
401, 3, 3305, 3372, 3364
402, 3305, 3372, 3364, 4
403, 3406, 2, 3336, 3389
404, 2, 3336, 3389, 3
405, 2, 3388, 3331, 3
406, 8, 3464, 3333, 3336
407, 3464, 3333, 3336, 3323
408, 3333, 3336, 3323, 3476
409, 6, 3562, 3555, 3568
410, 1352, 1353, 1342, 3621
411, 926976, 917504, 920576, 923392
412, 256, 6, 3662, 3601
413, 6, 3662, 3601, 3656
414, 3662, 3601, 3656, 3648
415, 3601, 3656, 3648, 3639
416, 3656, 3648, 3639, 3628
417, 3648, 3639, 3628, 3668
418, 4, 3616, 3610, 3663
419, 3616, 3610, 3663, 3634
420, 3610, 3663, 3634, 5
421, 4, 3628, 3662, 3607
422, 3628, 3662, 3607, 3615
423, 3662, 3607, 3615, 5
424, 3670, 4, 3651, 3657
425, 4, 3651, 3657, 3591
426, 3651, 3657, 3591, 3622
427, 3657, 3591, 3622, 5
428, 4, 3621, 3584, 3656
429, 3621, 3584, 3656, 3648
430, 3584, 3656, 3648, 5
431, 1, 4, 3708, 2007
432, 4, 3708, 2007, 2304
433, 3708, 2007, 2304, 3710
434, 12, 3131, 3121, 3714
435, 256, 4, 2714, 3165
436, 4, 2714, 3165, 2884
437, 2714, 3165, 2884, 3724
438, 3165, 2884, 3724, 2768
439, 2884, 3724, 2768, 3171
440, 3724, 2768, 3171, 2912
441, 2768, 3171, 2912, 3730
442, 905216, 902912, 903168, 900608
443, 256, 6, 3546, 3743
444, 6, 3546, 3743, 3122
445, 3546, 3743, 3122, 3715
446, 3743, 3122, 3715, 3528
447, 3122, 3715, 3528, 3536
448, 3715, 3528, 3536, 3721
449, 3528, 3536, 3721, 3157
450, 3536, 3721, 3157, 3755
451, 3721, 3157, 3755, 3577
452, 2582, 2583, 2567, 3770
453, 256, 7, 3805, 3814
454, 7, 3805, 3814, 3787
455, 3805, 3814, 3787, 2583
456, 3814, 3787, 2583, 3762
457, 3787, 2583, 3762, 3773
458, 2583, 3762, 3773, 3779
459, 963840, 963584, 966144, 965632
460, 8, 105, 98, 3870
461, 105, 98, 3870, 3866
462, 98, 3870, 3866, 3902
463, 3870, 3866, 3902, 3869
464, 3866, 3902, 3869, 69
465, 3902, 3869, 69, 3926
466, 691968, 692480, 689920, 690176
467, 692480, 689920, 690176, 686848
468, 936192, 934400, 934656, 932352
469, 1020672, 1019136, 1017088, 1015040
470, 1013504, 1011456, 1009408, 1007872
471, 8, 2658, 2629, 3960
472, 2658, 2629, 3960, 3953
473, 2629, 3960, 3953, 3954
474, 3960, 3953, 3954, 3945
475, 3953, 3954, 3945, 3946
476, 3954, 3945, 3946, 2657
477, 256, 15, 2613, 4091
478, 15, 2613, 4091, 4082
479, 2613, 4091, 4082, 4073
480, 4091, 4082, 4073, 4065
481, 4082, 4073, 4065, 4059
482, 4073, 4065, 4059, 4050
483, 4065, 4059, 4050, 4044
484, 4059, 4050, 4044, 4033
485, 4050, 4044, 4033, 4023
486, 4044, 4033, 4023, 4014
487, 4033, 4023, 4014, 4006
488, 4023, 4014, 4006, 3643
489, 4014, 4006, 3643, 3938
490, 4006, 3643, 3938, 2665
491, 3643, 3938, 2665, 4097
492, 12, 4150, 4138, 4168
493, 1067264, 1059072, 1060352, 1059840
494, 256, 8, 4142, 4169
495, 8, 4142, 4169, 1735
496, 4142, 4169, 1735, 1806
497, 4169, 1735, 1806, 4194
498, 1735, 1806, 4194, 2948
499, 1806, 4194, 2948, 4188
500, 4194, 2948, 4188, 4180
501, 2948, 4188, 4180, 4200
502, 2945, 4189, 4182, 4183
503, 4189, 4182, 4183, 4141
504, 4182, 4183, 4141, 4162
505, 4183, 4141, 4162, 4107
506, 454912, 454656, 460800, 460544
507, 256, 5, 4224, 4218
508, 5, 4224, 4218, 4195
509, 4224, 4218, 4195, 1800
510, 4218, 4195, 1800, 1777
511, 4195, 1800, 1777, 4203
512, 1800, 1777, 4203, 4230
513, 1, 4, 3446, 4274
514, 4, 3446, 4274, 4276
515, 3446, 4274, 4276, 4278
516, 10, 1616, 1607, 4282
517, 384, 6, 2473, 2415
518, 6, 2473, 2415, 1396
519, 2473, 2415, 1396, 4301
520, 2415, 1396, 4301, 4295
521, 1396, 4301, 4295, 4307
522, 4301, 4295, 4307, 4313
523, 1, 4, 2560, 1462
524, 4, 2560, 1462, 1852
525, 2560, 1462, 1852, 4124
526, 4395, 2, 4380, 4352
527, 2, 4380, 4352, 3
528, 2, 4349, 4376, 3
529, 4397, 2, 4344, 4386
530, 2, 4344, 4386, 3
531, 2, 4385, 4341, 3
532, 4335, 2568, 2571, 2570
533, 2568, 2571, 2570, 2620
534, 2571, 2570, 2620, 2612
535, 2570, 2620, 2612, 4092
536, 2620, 2612, 4092, 4085
537, 2612, 4092, 4085, 4409
538, 3480, 3790, 4352, 4351
539, 3790, 4352, 4351, 3789
540, 4352, 4351, 3789, 2962
541, 4351, 3789, 2962, 2961
542, 3789, 2962, 2961, 2976
543, 2962, 2961, 2976, 2970
544, 2961, 2976, 2970, 2969
545, 2976, 2970, 2969, 3815
546, 2970, 2969, 3815, 3808
547, 2969, 3815, 3808, 4421
548, 774912, 766464, 765952, 765440
549, 12, 3556, 3545, 3737
550, 3556, 3545, 3737, 3736
551, 3545, 3737, 3736, 3749
552, 3737, 3736, 3749, 2780
553, 3736, 3749, 2780, 3034
554, 3749, 2780, 3034, 3032
555, 2780, 3034, 3032, 4447
556, 3034, 3032, 4447, 4439
557, 3032, 4447, 4439, 4453
558, 256, 4, 4460, 4441
559, 4, 4460, 4441, 4454
560, 4460, 4441, 4454, 3569
561, 4441, 4454, 3569, 4275
562, 4454, 3569, 4275, 3080
563, 3569, 4275, 3080, 3757
564, 4275, 3080, 3757, 3575
565, 3080, 3757, 3575, 4466
566, 1980, 2000, 1991, 4461
567, 2000, 1991, 4461, 4256
568, 288, 4, 3325, 3481
569, 4, 3325, 3481, 4404
570, 3325, 3481, 4404, 4480
571, 3481, 4404, 4480, 3403
572, 4404, 4480, 3403, 4488
573, 3312, 3373, 3366, 3367
574, 3373, 3366, 3367, 3052
575, 3366, 3367, 3052, 3053
576, 3367, 3052, 3053, 3042
577, 256, 6, 4336, 2832
578, 6, 4336, 2832, 3043
579, 4336, 2832, 3043, 4493
580, 2832, 3043, 4493, 3314
581, 3043, 4493, 3314, 4481
582, 4493, 3314, 4481, 3082
583, 3314, 4481, 3082, 2861
584, 4481, 3082, 2861, 3405
585, 3082, 2861, 3405, 4489
586, 2861, 3405, 4489, 4400
587, 1158912, 1157376, 1154816, 1152256
588, 256, 3, 4534, 4522
589, 3, 4534, 4522, 3283
590, 4534, 4522, 3283, 4540
591, 8, 4542, 1979, 4471
592, 4542, 1979, 4471, 4246
593, 1979, 4471, 4246, 4572
594, 4471, 4246, 4572, 4565
595, 4246, 4572, 4565, 4578
596, 8, 4516, 4504, 4579
597, 4516, 4504, 4579, 4564
598, 4504, 4579, 4564, 4566
599, 4579, 4564, 4566, 4556
600, 4564, 4566, 4556, 4586
601, 4566, 4556, 4586, 4514
602, 384, 4, 1843, 1870
603, 4, 1843, 1870, 2440
604, 1843, 1870, 2440, 4607
605, 1870, 2440, 4607, 4613
606, 8, 4622, 2513, 2552
607, 4622, 2513, 2552, 2455
608, 2513, 2552, 2455, 4615
609, 2552, 2455, 4615, 1825
610, 2455, 4615, 1825, 1826
611, 4615, 1825, 1826, 1815
612, 288, 5, 1329, 1416
613, 5, 1329, 1416, 1864
614, 1329, 1416, 1864, 378
615, 1416, 1864, 378, 2139
616, 1864, 378, 2139, 1876
617, 378, 2139, 1876, 1468
618, 2139, 1876, 1468, 437
619, 1876, 1468, 437, 2165
620, 1, 6, 1202, 2163
621, 6, 1202, 2163, 2131
622, 1202, 2163, 2131, 547
623, 2163, 2131, 547, 353
624, 2131, 547, 353, 4001
625, 18, 3087, 3096, 2891
626, 3087, 3096, 2891, 2893
627, 3096, 2891, 2893, 2883
628, 2891, 2893, 2883, 3988
629, 2893, 2883, 3988, 3834
630, 2883, 3988, 3834, 3835
631, 3988, 3834, 3835, 3771
632, 3834, 3835, 3771, 4343
633, 3835, 3771, 4343, 3782
634, 3771, 4343, 3782, 3781
635, 4343, 3782, 3781, 4344
636, 3782, 3781, 4344, 4386
637, 3781, 4344, 4386, 4378
638, 4344, 4386, 4378, 4422
639, 4386, 4378, 4422, 3807
640, 4378, 4422, 3807, 3809
641, 256, 3, 3261, 4645
642, 3, 3261, 4645, 3470
643, 3261, 4645, 3470, 4660
644, 1, 4, 4682, 2127
645, 4, 4682, 2127, 4683
646, 4682, 2127, 4683, 1198
647, 8, 3798, 3797, 4361
648, 3798, 3797, 4361, 4686
649, 384, 4, 4654, 4696
650, 4, 4654, 4696, 4370
651, 4654, 4696, 4370, 4697
652, 4696, 4370, 4697, 4702
653, 2246, 2285, 2387, 2399
654, 2285, 2387, 2399, 2282
655, 2387, 2399, 2282, 893
656, 384, 16, 1360, 3616
657, 16, 1360, 3616, 3610
658, 1360, 3616, 3610, 4713
659, 3616, 3610, 4713, 558
660, 3610, 4713, 558, 719
661, 4713, 558, 719, 3228
662, 558, 719, 3228, 4719
663, 719, 3228, 4719, 3681
664, 3228, 4719, 3681, 2248
665, 4719, 3681, 2248, 4707
666, 3681, 2248, 4707, 2365
667, 2248, 4707, 2365, 460
668, 4707, 2365, 460, 396
669, 2365, 460, 396, 1591
670, 460, 396, 1591, 1369
671, 396, 1591, 1369, 4725
672, 256, 512, 9792, 2304
673, 256, 512, 9792, 2304
674, 256, 512, 9792, 2304
675, 256, 512, 9792, 2304
676, 256, 512, 9792, 2304
677, 256, 512, 9792, 2304
678, 256, 512, 9792, 2304
679, 256, 512, 9792, 2304
680, 256, 512, 9792, 2304
681, 256, 512, 9792, 2304
682, 256, 512, 9792, 6400
683, 256, 512, 9792, 2304
684, 256, 512, 9792, 6400
685, 256, 512, 9792, 6400
686, 256, 512, 9792, 2304
687, 256, 512, 9792, 2304
688, 256, 512, 9792, 6400
689, 256, 512, 9792, 6400
690, 256, 512, 9792, 6400
691, 256, 512, 9792, 2304
692, 256, 512, 9792, 2304
693, 256, 512, 9792, 2304
694, 256, 512, 9792, 2304
695, 256, 512, 9792, 2304
696, 256, 512, 9792, 2304
697, 256, 512, 9792, 2304
698, 256, 512, 9792, 2304
699, 256, 512, 9792, 6400
700, 256, 512, 9792, 2304
701, 256, 512, 9792, 2304
702, 256, 512, 9792, 2304
703, 256, 512, 9792, 2304
704, 256, 512, 9792, 2304
705, 256, 512, 9792, 2304
706, 256, 512, 9792, 6400
707, 256, 512, 9792, 6400
708, 256, 512, 9792, 2304
709, 256, 512, 9792, 2304
710, 256, 512, 9792, 2304
711, 256, 512, 9792, 2304
712, 256, 512, 9792, 2304
713, 256, 512, 9792, 2304
714, 256, 512, 9792, 2304
715, 256, 512, 9792, 2304
716, 256, 512, 9792, 2304
717, 256, 512, 9792, 2304
718, 256, 512, 9792, 2304
719, 256, 512, 9792, 2304
720, 256, 512, 9792, 2304
721, 256, 512, 9792, 2304
722, 256, 512, 9792, 6400
723, 256, 512, 9792, 2304
724, 256, 512, 9792, 2304
725, 256, 512, 9792, 2304
726, 256, 512, 9792, 6400
727, 256, 512, 9792, 6400
728, 256, 512, 9792, 6400
729, 256, 512, 9792, 2304
730, 256, 512, 9792, 2304
731, 256, 512, 9792, 2304
732, 256, 512, 9792, 2304
733, 256, 512, 9792, 2304
734, 256, 512, 9792, 6400
735, 256, 512, 9792, 6400
736, 256, 512, 9792, 2304
737, 256, 512, 9792, 2304
738, 256, 512, 9792, 2304
739, 256, 512, 9792, 2304
740, 256, 512, 9792, 2304
741, 256, 512, 9792, 2304
742, 256, 512, 9792, 2304
743, 256, 512, 9792, 2304
744, 256, 512, 9792, 2304
745, 256, 512, 9792, 2304
746, 256, 512, 9792, 6400
747, 256, 512, 9792, 6400
*ELEMENT, TYPE=C3D8
748, 384, 9, 186, 196, 126, 136, 146, 157
749, 9, 186, 196, 126, 136, 146, 157, 160
750, 186, 196, 126, 136, 146, 157, 160, 169
751, 196, 126, 136, 146, 157, 160, 169, 179
752, 126, 136, 146, 157, 160, 169, 179, 202
753, 1, 7, 424, 426, 428, 430, 432, 434
754, 7, 424, 426, 428, 430, 432, 434, 436
755, 384, 6, 473, 255, 482, 491, 502, 513
756, 6, 473, 255, 482, 491, 502, 513, 306
757, 473, 255, 482, 491, 502, 513, 306, 520
758, 384, 8, 651, 660, 670, 631, 173, 637
759, 8, 651, 660, 670, 631, 173, 637, 275
760, 651, 660, 670, 631, 173, 637, 275, 643
761, 660, 670, 631, 173, 637, 275, 643, 676
762, 256, 7, 686, 151, 689, 335, 284, 638
763, 7, 686, 151, 689, 335, 284, 638, 164
764, 686, 151, 689, 335, 284, 638, 164, 695
765, 384, 12, 998, 1007, 190, 932, 973, 982
766, 12, 998, 1007, 190, 932, 973, 982, 942
767, 998, 1007, 190, 932, 973, 982, 942, 988
768, 1007, 190, 932, 973, 982, 942, 988, 1024
769, 190, 932, 973, 982, 942, 988, 1024, 1013
770, 932, 973, 982, 942, 988, 1024, 1013, 954
771, 973, 982, 942, 988, 1024, 1013, 954, 964
772, 982, 942, 988, 1024, 1013, 954, 964, 203
773, 942, 988, 1024, 1013, 954, 964, 203, 1030
774, 1, 7, 203, 1030, 1050, 1052, 1054, 1056
775, 7, 203, 1030, 1050, 1052, 1054, 1056, 1058
776, 12, 935, 934, 180, 123, 632, 171, 630
777, 935, 934, 180, 123, 632, 171, 630, 671
778, 934, 180, 123, 632, 171, 630, 671, 662
779, 180, 123, 632, 171, 630, 671, 662, 1062
780, 256, 4, 1072, 341, 690, 140, 696, 213
781, 4, 1072, 341, 690, 140, 696, 213, 1078
782, 256, 6, 945, 983, 1063, 664, 1097, 993
783, 6, 945, 983, 1063, 664, 1097, 993, 679
784, 945, 983, 1063, 664, 1097, 993, 679, 1069
785, 983, 1063, 664, 1097, 993, 679, 1069, 1051
786, 1063, 664, 1097, 993, 679, 1069, 1051, 1105
787, 384, 7, 1153, 1162, 1135, 1110, 1121, 52
788, 7, 1153, 1162, 1135, 1110, 1121, 52, 1127
789, 256, 6, 1220, 1270, 1261, 1252, 1243, 1231
790, 6, 1220, 1270, 1261, 1252, 1243, 1231, 1277
791, 16, 1676, 1784, 1669, 1623, 1691, 1773, 1812
792, 384, 5, 1670, 1683, 1569, 1863, 1869, 1583
793, 5, 1670, 1683, 1569, 1863, 1869, 1583, 1875
794, 384, 6, 1881, 1895, 1906, 1212, 958, 1912
795, 6, 1881, 1895, 1906, 1212, 958, 1912, 1918
796, 256, 6, 1969, 1959, 1271, 1907, 1952, 1938
797, 6, 1969, 1959, 1271, 1907, 1952, 1938, 1976
798, 1, 8, 1055, 2016, 2014, 2006, 2010, 2012
799, 8, 1055, 2016, 2014, 2006, 2010, 2012, 2008
800, 1055, 2016, 2014, 2006, 2010, 2012, 2008, 1278
801, 384, 6, 2043, 2035, 2049, 2055, 2029, 850
802, 6, 2043, 2035, 2049, 2055, 2029, 850, 2058
803, 384, 6, 2111, 2120, 2084, 2070, 532, 2076
804, 3, 4, 2130, 2132, 2134, 545, 1, 2126
805, 416, 4, 2215, 2151, 913, 769, 927, 830
806, 4, 2215, 2151, 913, 769, 927, 830, 2221
807, 384, 6, 2216, 741, 2226, 486, 244, 2071
808, 6, 2216, 741, 2226, 486, 244, 2071, 525
809, 2216, 741, 2226, 486, 244, 2071, 525, 308
810, 741, 2226, 486, 244, 2071, 525, 308, 828
811, 2226, 486, 244, 2071, 525, 308, 828, 2222
812, 486, 244, 2071, 525, 308, 828, 2222, 2135
813, 8, 2322, 2324, 2314, 2337, 2256, 2344, 2266
814, 2322, 2324, 2314, 2337, 2256, 2344, 2266, 2274
815, 2, 4, 466, 2392, 925, 2167, 1, 2394
816, 12, 839, 841, 785, 810, 808, 2350, 2284
817, 839, 841, 785, 810, 808, 2350, 2284, 896
818, 841, 785, 810, 808, 2350, 2284, 896, 895
819, 785, 810, 808, 2350, 2284, 896, 895, 2398
820, 256, 8, 2845, 2828, 2838, 2815, 2806, 2797
821, 8, 2845, 2828, 2838, 2815, 2806, 2797, 2788
822, 2845, 2828, 2838, 2815, 2806, 2797, 2788, 2773
823, 2828, 2838, 2815, 2806, 2797, 2788, 2773, 2854
824, 256, 6, 3382, 3388, 3342, 3372, 3364, 3355
825, 6, 3382, 3388, 3342, 3372, 3364, 3355, 3398
826, 256, 6, 3662, 3601, 3656, 3648, 3639, 3628
827, 6, 3662, 3601, 3656, 3648, 3639, 3628, 3668
828, 256, 4, 2714, 3165, 2884, 3724, 2768, 3171
829, 4, 2714, 3165, 2884, 3724, 2768, 3171, 2912
830, 2714, 3165, 2884, 3724, 2768, 3171, 2912, 3730
831, 256, 6, 3546, 3743, 3122, 3715, 3528, 3536
832, 6, 3546, 3743, 3122, 3715, 3528, 3536, 3721
833, 3546, 3743, 3122, 3715, 3528, 3536, 3721, 3157
834, 3743, 3122, 3715, 3528, 3536, 3721, 3157, 3755
835, 3122, 3715, 3528, 3536, 3721, 3157, 3755, 3577
836, 256, 7, 3805, 3814, 3787, 2583, 3762, 3773
837, 7, 3805, 3814, 3787, 2583, 3762, 3773, 3779
838, 8, 105, 98, 3870, 3866, 3902, 3869, 69
839, 105, 98, 3870, 3866, 3902, 3869, 69, 3926
840, 8, 2658, 2629, 3960, 3953, 3954, 3945, 3946
841, 2658, 2629, 3960, 3953, 3954, 3945, 3946, 2657
842, 256, 15, 2613, 4091, 4082, 4073, 4065, 4059
843, 15, 2613, 4091, 4082, 4073, 4065, 4059, 4050
844, 2613, 4091, 4082, 4073, 4065, 4059, 4050, 4044
845, 4091, 4082, 4073, 4065, 4059, 4050, 4044, 4033
846, 4082, 4073, 4065, 4059, 4050, 4044, 4033, 4023
847, 4073, 4065, 4059, 4050, 4044, 4033, 4023, 4014
848, 4065, 4059, 4050, 4044, 4033, 4023, 4014, 4006
849, 4059, 4050, 4044, 4033, 4023, 4014, 4006, 3643
850, 4050, 4044, 4033, 4023, 4014, 4006, 3643, 3938
851, 4044, 4033, 4023, 4014, 4006, 3643, 3938, 2665
852, 4033, 4023, 4014, 4006, 3643, 3938, 2665, 4097
853, 256, 8, 4142, 4169, 1735, 1806, 4194, 2948
854, 8, 4142, 4169, 1735, 1806, 4194, 2948, 4188
855, 4142, 4169, 1735, 1806, 4194, 2948, 4188, 4180
856, 4169, 1735, 1806, 4194, 2948, 4188, 4180, 4200
857, 256, 5, 4224, 4218, 4195, 1800, 1777, 4203
858, 5, 4224, 4218, 4195, 1800, 1777, 4203, 4230
859, 384, 6, 2473, 2415, 1396, 4301, 4295, 4307
860, 6, 2473, 2415, 1396, 4301, 4295, 4307, 4313
861, 4335, 2568, 2571, 2570, 2620, 2612, 4092, 4085
862, 2568, 2571, 2570, 2620, 2612, 4092, 4085, 4409
863, 3480, 3790, 4352, 4351, 3789, 2962, 2961, 2976
864, 3790, 4352, 4351, 3789, 2962, 2961, 2976, 2970
865, 4352, 4351, 3789, 2962, 2961, 2976, 2970, 2969
866, 4351, 3789, 2962, 2961, 2976, 2970, 2969, 3815
867, 3789, 2962, 2961, 2976, 2970, 2969, 3815, 3808
868, 2962, 2961, 2976, 2970, 2969, 3815, 3808, 4421
869, 12, 3556, 3545, 3737, 3736, 3749, 2780, 3034
870, 3556, 3545, 3737, 3736, 3749, 2780, 3034, 3032
871, 3545, 3737, 3736, 3749, 2780, 3034, 3032, 4447
872, 3737, 3736, 3749, 2780, 3034, 3032, 4447, 4439
873, 3736, 3749, 2780, 3034, 3032, 4447, 4439, 4453
874, 256, 4, 4460, 4441, 4454, 3569, 4275, 3080
875, 4, 4460, 4441, 4454, 3569, 4275, 3080, 3757
876, 4460, 4441, 4454, 3569, 4275, 3080, 3757, 3575
877, 4441, 4454, 3569, 4275, 3080, 3757, 3575, 4466
878, 288, 4, 3325, 3481, 4404, 4480, 3403, 4488
879, 256, 6, 4336, 2832, 3043, 4493, 3314, 4481
880, 6, 4336, 2832, 3043, 4493, 3314, 4481, 3082
881, 4336, 2832, 3043, 4493, 3314, 4481, 3082, 2861
882, 2832, 3043, 4493, 3314, 4481, 3082, 2861, 3405
883, 3043, 4493, 3314, 4481, 3082, 2861, 3405, 4489
884, 4493, 3314, 4481, 3082, 2861, 3405, 4489, 4400
885, 8, 4542, 1979, 4471, 4246, 4572, 4565, 4578
886, 8, 4516, 4504, 4579, 4564, 4566, 4556, 4586
887, 4516, 4504, 4579, 4564, 4566, 4556, 4586, 4514
888, 8, 4622, 2513, 2552, 2455, 4615, 1825, 1826
889, 4622, 2513, 2552, 2455, 4615, 1825, 1826, 1815
890, 288, 5, 1329, 1416, 1864, 378, 2139, 1876
891, 5, 1329, 1416, 1864, 378, 2139, 1876, 1468
892, 1329, 1416, 1864, 378, 2139, 1876, 1468, 437
893, 1416, 1864, 378, 2139, 1876, 1468, 437, 2165
894, 1, 6, 1202, 2163, 2131, 547, 353, 4001
895, 18, 3087, 3096, 2891, 2893, 2883, 3988, 3834
896, 3087, 3096, 2891, 2893, 2883, 3988, 3834, 3835
897, 3096, 2891, 2893, 2883, 3988, 3834, 3835, 3771
898, 2891, 2893, 2883, 3988, 3834, 3835, 3771, 4343
899, 2893, 2883, 3988, 3834, 3835, 3771, 4343, 3782
900, 2883, 3988, 3834, 3835, 3771, 4343, 3782, 3781
901, 3988, 3834, 3835, 3771, 4343, 3782, 3781, 4344
902, 3834, 3835, 3771, 4343, 3782, 3781, 4344, 4386
903, 3835, 3771, 4343, 3782, 3781, 4344, 4386, 4378
904, 3771, 4343, 3782, 3781, 4344, 4386, 4378, 4422
905, 4343, 3782, 3781, 4344, 4386, 4378, 4422, 3807
906, 3782, 3781, 4344, 4386, 4378, 4422, 3807, 3809
907, 384, 16, 1360, 3616, 3610, 4713, 558, 719
908, 16, 1360, 3616, 3610, 4713, 558, 719, 3228
909, 1360, 3616, 3610, 4713, 558, 719, 3228, 4719
910, 3616, 3610, 4713, 558, 719, 3228, 4719, 3681
911, 3610, 4713, 558, 719, 3228, 4719, 3681, 2248
912, 4713, 558, 719, 3228, 4719, 3681, 2248, 4707
913, 558, 719, 3228, 4719, 3681, 2248, 4707, 2365
914, 719, 3228, 4719, 3681, 2248, 4707, 2365, 460
915, 3228, 4719, 3681, 2248, 4707, 2365, 460, 396
916, 4719, 3681, 2248, 4707, 2365, 460, 396, 1591
917, 3681, 2248, 4707, 2365, 460, 396, 1591, 1369
918, 2248, 4707, 2365, 460, 396, 1591, 1369, 4725
*ELSET, ELSET=SET_TETRA4
1, 2, 3, 4, 5, 6, 7, 8, 9, 10, 11, 12, 13, 14, 15, 16
17, 18, 19, 20, 21, 22, 23, 24, 25, 26, 27, 28, 29, 30, 31, 32
33, 34, 35, 36, 37, 38, 39, 40, 41, 42, 43, 44, 45, 46, 47, 48
49, 50, 51, 52, 53, 54, 55, 56, 57, 58, 59, 60, 61, 62, 63, 64
65, 66, 67, 68, 69, 70, 71, 72, 73, 74, 75, 76, 77, 78, 79, 80
81, 82, 83, 84, 85, 86, 87, 88, 89, 90, 91, 92, 93, 94, 95, 96
97, 98, 99, 100, 101, 102, 103, 104, 105, 106, 107, 108, 109, 110, 111, 112
113, 114, 115, 116, 117, 118, 119, 120, 121, 122, 123, 124, 125, 126, 127, 128
129, 130, 131, 132, 133, 134, 135, 136, 137, 138, 139, 140, 141, 142, 143, 144
145, 146, 147, 148, 149, 150, 151, 152, 153, 154, 155, 156, 157, 158, 159, 160
161, 162, 163, 164, 165, 166, 167, 168, 169, 170, 171, 172, 173, 174, 175, 176
177, 178, 179, 180, 181, 182, 183, 184, 185, 186, 187, 188, 189, 190, 191, 192
193, 194, 195, 196, 197, 198, 199, 200, 201, 202, 203, 204, 205, 206, 207, 208
209, 210, 211, 212, 213, 214, 215, 216, 217, 218, 219, 220, 221, 222, 223, 224
225, 226, 227, 228, 229, 230, 231, 232, 233, 234, 235, 236, 237, 238, 239, 240
241, 242, 243, 244, 245, 246, 247, 248, 249, 250, 251, 252, 253, 254, 255, 256
257, 258, 259, 260, 261, 262, 263, 264, 265, 266, 267, 268, 269, 270, 271, 272
273, 274, 275, 276, 277, 278, 279, 280, 281, 282, 283, 284, 285, 286, 287, 288
289, 290, 291, 292, 293, 294, 295, 296, 297, 298, 299, 300, 301, 302, 303, 304
305, 306, 307, 308, 309, 310, 311, 312, 313, 314, 315, 316, 317, 318, 319, 320
321, 322, 323, 324, 325, 326, 327, 328, 329, 330, 331, 332, 333, 334, 335, 336
337, 338, 339, 340, 341, 342, 343, 344, 345, 346, 347, 348, 349, 350, 351, 352
353, 354, 355, 356, 357, 358, 359, 360, 361, 362, 363, 364, 365, 366, 367, 368
369, 370, 371, 372, 373, 374, 375, 376, 377, 378, 379, 380, 381, 382, 383, 384
385, 386, 387, 388, 389, 390, 391, 392, 393, 394, 395, 396, 397, 398, 399, 400
401, 402, 403, 404, 405, 406, 407, 408, 409, 410, 411, 412, 413, 414, 415, 416
417, 418, 419, 420, 421, 422, 423, 424, 425, 426, 427, 428, 429, 430, 431, 432
433, 434, 435, 436, 437, 438, 439, 440, 441, 442, 443, 444, 445, 446, 447, 448
449, 450, 451, 452, 453, 454, 455, 456, 457, 458, 459, 460, 461, 462, 463, 464
465, 466, 467, 468, 469, 470, 471, 472, 473, 474, 475, 476, 477, 478, 479, 480
481, 482, 483, 484, 485, 486, 487, 488, 489, 490, 491, 492, 493, 494, 495, 496
497, 498, 499, 500, 501, 502, 503, 504, 505, 506, 507, 508, 509, 510, 511, 512
513, 514, 515, 516, 517, 518, 519, 520, 521, 522, 523, 524, 525, 526, 527, 528
529, 530, 531, 532, 533, 534, 535, 536, 537, 538, 539, 540, 541, 542, 543, 544
545, 546, 547, 548, 549, 550, 551, 552, 553, 554, 555, 556, 557, 558, 559, 560
561, 562, 563, 564, 565, 566, 567, 568, 569, 570, 571, 572, 573, 574, 575, 576
577, 578, 579, 580, 581, 582, 583, 584, 585, 586, 587, 588, 589, 590, 591, 592
593, 594, 595, 596, 597, 598, 599, 600, 601, 602, 603, 604, 605, 606, 607, 608
609, 610, 611, 612, 613, 614, 615, 616, 617, 618, 619, 620, 621, 622, 623, 624
625, 626, 627, 628, 629, 630, 631, 632, 633, 634, 635, 636, 637, 638, 639, 640
641, 642, 643, 644, 645, 646, 647, 648, 649, 650, 651, 652, 653, 654, 655, 656
657, 658, 659, 660, 661, 662, 663, 664, 665, 666, 667, 668, 669, 670, 671, 672
673, 674, 675, 676, 677, 678, 679, 680, 681, 682, 683, 684, 685, 686, 687, 688
689, 690, 691, 692, 693, 694, 695, 696, 697, 698, 699, 700, 701, 702, 703, 704
705, 706, 707, 708, 709, 710, 711, 712, 713, 714, 715, 716, 717, 718, 719, 720
721, 722, 723, 724, 725, 726, 727, 728, 729, 730, 731, 732, 733, 734, 735, 736
737, 738, 739, 740, 741, 742, 743, 744, 745, 746, 747
*ELSET, ELSET=SET_HEXA8
748, 749, 750, 751, 752, 753, 754, 755, 756, 757, 758, 759, 760, 761, 762, 763
764, 765, 766, 767, 768, 769, 770, 771, 772, 773, 774, 775, 776, 777, 778, 779
780, 781, 782, 783, 784, 785, 786, 787, 788, 789, 790, 791, 792, 793, 794, 795
796, 797, 798, 799, 800, 801, 802, 803, 804, 805, 806, 807, 808, 809, 810, 811
812, 813, 814, 815, 816, 817, 818, 819, 820, 821, 822, 823, 824, 825, 826, 827
828, 829, 830, 831, 832, 833, 834, 835, 836, 837, 838, 839, 840, 841, 842, 843
844, 845, 846, 847, 848, 849, 850, 851, 852, 853, 854, 855, 856, 857, 858, 859
860, 861, 862, 863, 864, 865, 866, 867, 868, 869, 870, 871, 872, 873, 874, 875
876, 877, 878, 879, 880, 881, 882, 883, 884, 885, 886, 887, 888, 889, 890, 891
892, 893, 894, 895, 896, 897, 898, 899, 900, 901, 902, 903, 904, 905, 906, 907
908, 909, 910, 911, 912, 913, 914, 915, 916, 917, 918
